NAME : MTSP_BASELINE
TYPE : TSP
DIMENSION : 10000
EDGE_WEIGHT_TYPE : EXACT_2D
SALESMEN : 100
NODE_COORD_SECTION
1 92 8
2 32.512999999999998 25.035
3 16.396000000000001 19.635999999999999
4 68.837999999999994 84.900999999999996
5 64.260999999999996 35.771000000000001
6 40.707000000000001 59.740000000000002
7 56.244 80.239999999999995
8 28.385999999999999 58.649000000000001
9 17.334 72.691999999999993
10 26.02 57.173999999999999
11 35.588999999999999 16.289999999999999
12 33.356999999999999 65.609999999999999
13 76.256 51.295999999999999
14 68.817999999999998 77.244
15 70.277000000000001 9.1419999999999995
16 55.826000000000001 23.635999999999999
17 31.84 29.542999999999999
18 28.236999999999998 25.600999999999999
19 25.263000000000002 69.774000000000001
20 30.431000000000001 9.0090000000000003
21 17.933 69.588999999999999
22 24.995000000000001 60.584000000000003
23 75.640000000000001 77.460999999999999
24 36.372999999999998 26.384
25 77.471999999999994 24.855
26 28.667999999999999 38.390000000000001
27 38.439999999999998 24.48
28 13.186999999999999 67.822999999999993
29 72.358999999999995 29.542999999999999
30 67.963999999999999 39.127000000000002
31 64.191999999999993 14.875999999999999
32 65.066999999999993 70.632000000000005
33 30.542000000000002 66.591999999999999
34 65.846000000000004 97.991
35 78.031999999999996 65.915999999999997
36 68.224999999999994 89.135000000000005
37 34.695 62.273000000000003
38 64.221999999999994 20.763000000000002
39 50.863 75.066000000000003
40 59.685000000000002 82.733000000000004
41 32.688000000000002 37.195
42 20.600000000000001 59.061999999999998
43 17.527000000000001 49.253
44 23.690999999999999 23.811
45 33.884 24.805
46 17.082000000000001 35.991
47 75.867000000000004 29.863
48 70.963999999999999 29.442
49 62.969999999999999 19.152000000000001
50 11.558999999999999 55.911000000000001
51 63.581000000000003 24.733000000000001
52 53.354999999999997 35.875999999999998
53 34.143000000000001 53.039999999999999
54 34.274000000000001 64.593000000000004
55 20.187999999999999 56.393999999999998
56 45.036999999999999 12.715
57 76.290000000000006 12.867000000000001
58 15.332000000000001 65.385999999999996
59 62.987000000000002 66.644000000000005
60 27.686 28.332000000000001
61 26.486000000000001 23.686
62 14.488 61.969000000000001
63 38.411999999999999 18.454000000000001
64 19.048999999999999 72.180999999999997
65 59.162999999999997 27.518999999999998
66 8.484 60.329000000000001
67 21.574999999999999 26.173999999999999
68 60.658999999999999 29.559999999999999
69 11.858000000000001 60.887999999999998
70 68.513999999999996 18.675000000000001
71 47.704000000000001 27.603999999999999
72 37.921999999999997 30.635000000000002
73 66.816000000000003 87.753
74 62.363999999999997 26.181999999999999
75 27.079999999999998 20.728999999999999
76 53.68 84
77 25.510000000000002 44.087000000000003
78 77.204999999999998 63.552
79 35.787999999999997 31.585999999999999
80 69.415999999999997 83.385000000000005
81 23.948 57.493000000000002
82 24.434000000000001 10.784000000000001
83 45.841000000000001 64.176000000000002
84 55.314999999999998 14.634
85 39.904000000000003 35.281999999999996
86 68.275999999999996 26.731999999999999
87 36.423000000000002 31.460999999999999
88 41.889000000000003 4.7169999999999996
89 28.053000000000001 25.972999999999999
90 24.795999999999999 61.923000000000002
91 84.313999999999993 31.074999999999999
92 58.371000000000002 39.427
93 79.738 18.359000000000002
94 35.683999999999997 25.010000000000002
95 20.302 25.193000000000001
96 72.302000000000007 13.18
97 59.494999999999997 30.625
98 63.939999999999998 25.224
99 18.169 17.446999999999999
100 54.341000000000001 22.132999999999999
101 63.759999999999998 40.774999999999999
102 36.354999999999997 31.887
103 62.448999999999998 79.689999999999998
104 69.718999999999994 18.646000000000001
105 28.873999999999999 64.301000000000002
106 66.308999999999997 92.346999999999994
107 60.896999999999998 30.158999999999999
108 36.152999999999999 16.821000000000002
109 22.727 25.806000000000001
110 35.170999999999999 31.699000000000002
111 63.061999999999998 29.847999999999999
112 62.468000000000004 24.515999999999998
113 26.959 20.748000000000001
114 65.658000000000001 19.593
115 60.851999999999997 93.012
116 30.895 49.179000000000002
117 71.540000000000006 72.481999999999999
118 8.3780000000000001 67.043000000000006
119 72.203999999999994 26.663
120 30.678000000000001 80.593999999999994
121 30.102 62.082999999999998
122 55.924999999999997 25.010000000000002
123 58.164999999999999 32.000999999999998
124 78.444999999999993 24.882999999999999
125 59.514000000000003 22.513999999999999
126 37.597999999999999 21.855
127 37.496000000000002 26.829999999999998
128 17.015999999999998 58.488
129 52.106000000000002 16.100999999999999
130 32.039000000000001 23.390999999999998
131 64.061000000000007 78.540000000000006
132 62.674999999999997 36.618000000000002
133 21.884 72.953000000000003
134 29.222999999999999 77.579999999999998
135 63.887999999999998 75.302000000000007
136 68.890000000000001 23.315999999999999
137 65.564999999999998 13.146000000000001
138 23.102 61.066000000000003
139 30.672000000000001 30.757000000000001
140 35.715000000000003 54.420000000000002
141 58.899999999999999 27.751000000000001
142 53.345999999999997 29.905000000000001
143 43.031999999999996 34.905000000000001
144 24.501000000000001 63.692
145 21.745999999999999 63.576000000000001
146 64.447000000000003 73.459000000000003
147 59.002000000000002 30.007000000000001
148 68.046999999999997 84.5
149 55.618000000000002 88.135999999999996
150 56.953000000000003 64.926000000000002
151 49.488 26.198
152 66.683000000000007 20.154
153 45.68 27.779
154 13.942 65.236999999999995
155 35.337000000000003 18.462
156 58.551000000000002 43.57
157 17.841999999999999 23.797999999999998
158 57.537999999999997 25.571999999999999
159 75.400999999999996 71.757000000000005
160 20.193999999999999 13.311
161 26.597999999999999 65.920000000000002
162 10.612 70.373999999999995
163 19.201000000000001 59.957999999999998
164 19.616 35.674999999999997
165 71.314999999999998 27.326000000000001
166 24.539000000000001 27.263000000000002
167 35.621000000000002 22.974
168 62.008000000000003 27.510999999999999
169 66.781000000000006 31.052
170 14.994999999999999 68.858000000000004
171 24.254000000000001 81.653000000000006
172 25.768999999999998 55.359000000000002
173 68.980000000000004 74.302000000000007
174 69.025000000000006 87.284999999999997
175 69.555000000000007 28.690999999999999
176 45.981000000000002 24.798999999999999
177 38.194000000000003 20.440000000000001
178 24.655999999999999 66.524000000000001
179 22.524000000000001 26.388000000000002
180 43.018000000000001 19.713000000000001
181 71.866 22.617999999999999
182 65.349000000000004 73.563999999999993
183 13.231999999999999 80.147000000000006
184 36.499000000000002 11.089
185 19.849 27.780999999999999
186 57.231000000000002 25.048999999999999
187 21.617000000000001 68.850999999999999
188 68.415000000000006 66.421999999999997
189 63.243000000000002 69.816000000000003
190 25.327999999999999 74.379999999999995
191 25.361000000000001 23.994
192 75.926000000000002 94.302999999999997
193 47.325000000000003 29.678999999999998
194 69.751999999999995 79.052000000000007
195 25.041 55.188000000000002
196 69.254999999999995 91.515000000000001
197 25.960000000000001 42.484000000000002
198 16.385000000000002 76.430000000000007
199 56.390000000000001 72.430000000000007
200 16.315000000000001 61.914999999999999
201 65.207999999999998 44.481999999999999
202 70.183999999999997 75.400999999999996
203 53.572000000000003 12.504
204 11.042999999999999 54.841000000000001
205 67.117000000000004 31.548999999999999
206 64.533000000000001 34.018999999999998
207 73.346000000000004 69.022000000000006
208 32.756 63.344000000000001
209 71.215999999999994 79.915999999999997
210 21.152000000000001 63.947000000000003
211 12.603999999999999 58.622999999999998
212 63.905000000000001 31.762
213 67.165999999999997 14.795
214 28.050999999999998 45.133000000000003
215 53.767000000000003 18.236000000000001
216 63.225000000000001 21.904
217 37.582000000000001 37.786999999999999
218 5.1210000000000004 62.021999999999998
219 74.296999999999997 9.4160000000000004
220 59.789999999999999 86.311999999999998
221 60.911000000000001 28.399000000000001
222 10.475 63.981000000000002
223 14.435 62.75
224 32.149000000000001 26.927
225 58.212000000000003 36.738
226 34.671999999999997 18.727
227 39.749000000000002 23.562000000000001
228 70.370000000000005 76.933999999999997
229 64.055000000000007 13.895
230 50.328000000000003 26.004999999999999
231 12.792999999999999 72.703999999999994
232 30.442 28.645
233 70.557000000000002 90.751000000000005
234 20.811 18.100000000000001
235 69.706999999999994 14.746
236 37.975999999999999 15.696999999999999
237 73.575000000000003 10.333
238 32.319000000000003 38.265999999999998
239 72.206000000000003 72.097999999999999
240 64.522999999999996 85.736000000000004
241 67.793000000000006 80.070999999999998
242 29.693000000000001 40.704999999999998
243 25.274000000000001 36.524999999999999
244 31.902999999999999 32.012999999999998
245 63.517000000000003 17.803999999999998
246 65.980000000000004 26.933
247 66.484999999999999 78.387
248 69.069000000000003 77.405000000000001
249 32.603999999999999 61.637999999999998
250 64.400999999999996 14.964
251 20.303999999999998 59.274999999999999
252 30.948 22.972000000000001
253 17.719999999999999 20.492000000000001
254 68.811000000000007 28.497
255 19.98 29.198
256 79.545000000000002 78.427999999999997
257 12.327 59.664000000000001
258 76.591999999999999 15.334
259 57.890000000000001 26.873999999999999
260 24.469999999999999 66.280000000000001
261 68.290999999999997 86.287999999999997
262 63.746000000000002 89.936000000000007
263 59.378 29.701000000000001
264 30.748000000000001 62.716999999999999
265 72.012 37.728999999999999
266 11.593 63.811999999999998
267 73.215999999999994 26.756
268 38.520000000000003 14.384
269 20.125 60.228000000000002
270 38.936999999999998 31.07
271 15.673999999999999 35.825000000000003
272 51.633000000000003 21.27
273 19.728999999999999 78.239999999999995
274 70.744 29.561
275 60.941000000000003 19.396000000000001
276 66.391999999999996 87.578000000000003
277 27.303999999999998 50.398000000000003
278 71.370999999999995 27.745999999999999
279 26.649000000000001 32.012999999999998
280 34.875999999999998 64.367999999999995
281 24.847999999999999 62.902999999999999
282 50.761000000000003 32.619
283 67.097999999999999 21.463999999999999
284 59.451999999999998 86.486000000000004
285 32.859000000000002 35.609000000000002
286 32.389000000000003 25.178999999999998
287 80.454999999999998 90.394999999999996
288 61.530000000000001 32.119
289 16.443000000000001 53.546999999999997
290 62.798999999999999 68.613
291 67.427000000000007 75.784999999999997
292 14.06 59.484000000000002
293 79.103999999999999 15.59
294 75.382999999999996 77.245999999999995
295 64.661000000000001 29.094999999999999
296 73.048000000000002 10.194000000000001
297 78.772999999999996 76.537999999999997
298 72.263999999999996 53.982999999999997
299 24.625 58.734999999999999
300 49.423000000000002 67.790000000000006
301 32.454000000000001 71.441999999999993
302 17.536000000000001 59.122999999999998
303 77.400000000000006 29.756
304 15.430999999999999 33.292999999999999
305 29.359000000000002 67.739000000000004
306 66.323999999999998 26.140000000000001
307 69.587999999999994 87.049000000000007
308 32.966999999999999 22.873000000000001
309 39.411000000000001 27.553999999999998
310 70.096999999999994 77.673000000000002
311 72.054000000000002 91.016000000000005
312 41.371000000000002 14.853
313 72.763999999999996 70.890000000000001
314 40.805999999999997 17.664999999999999
315 29.518999999999998 22.161999999999999
316 18.106000000000002 66.072999999999993
317 60.762999999999998 24.216999999999999
318 25.120000000000001 25.855
319 48.131999999999998 34.386000000000003
320 33.774999999999999 59.222000000000001
321 37.872 24.731000000000002
322 66.102999999999994 27.352
323 20.739999999999998 62.566000000000003
324 51.051000000000002 63.726999999999997
325 15.875999999999999 35.752000000000002
326 18.893999999999998 30.783000000000001
327 67.433999999999997 36.030000000000001
328 67.620000000000005 82.784000000000006
329 30.140000000000001 34.067999999999998
330 28.558 38.603000000000002
331 16.765000000000001 79.033000000000001
332 8.7479999999999993 62.609999999999999
333 56.597000000000001 31.103000000000002
334 57.909999999999997 25.119
335 39.786999999999999 41.799999999999997
336 27.472000000000001 21.483000000000001
337 26.957000000000001 56.439999999999998
338 67.060000000000002 69.409000000000006
339 25.420999999999999 21.350000000000001
340 26.568000000000001 36.860999999999997
341 68.721999999999994 69.834000000000003
342 68.015000000000001 79.751999999999995
343 65.263000000000005 13.199
344 28.155999999999999 67.111999999999995
345 25.850999999999999 61.753999999999998
346 38.753 27.632000000000001
347 68.808000000000007 28.195
348 46.460000000000001 21.920999999999999
349 71.069999999999993 88.463999999999999
350 30.509 25.82
351 64.203000000000003 76.859999999999999
352 75.403000000000006 70.617999999999995
353 67.563000000000002 30.582999999999998
354 16.117000000000001 65.090000000000003
355 43.877000000000002 37.267000000000003
356 66.638999999999996 15.699999999999999
357 60.18 23.806000000000001
358 36.439 56.963999999999999
359 78.786000000000001 28.916
360 25.917999999999999 40.963000000000001
361 58.984999999999999 23.939
362 68.019000000000005 84.212999999999994
363 17.440999999999999 61.281999999999996
364 64.632000000000005 29.152999999999999
365 37.070999999999998 29.434999999999999
366 24.675000000000001 59.883000000000003
367 69.495000000000005 44.121000000000002
368 51.904000000000003 21.518999999999998
369 67.623000000000005 33.337000000000003
370 29.640000000000001 21.079000000000001
371 29.251999999999999 65.661000000000001
372 11.643000000000001 84.135999999999996
373 31.565000000000001 69.754000000000005
374 62.777999999999999 77.682000000000002
375 73.019999999999996 10.499000000000001
376 28.706 12.956
377 39.226999999999997 24.431000000000001
378 77.638999999999996 76.730000000000004
379 61.698 79.769999999999996
380 43.817 16.904
381 13.863 69.653000000000006
382 64.753 23.065000000000001
383 61.572000000000003 82.180000000000007
384 30.814 33.491
385 26.48 73.069000000000003
386 33.222999999999999 33.719000000000001
387 54.064 27.506
388 21.510000000000002 69.114000000000004
389 32.360999999999997 50.552
390 64.724000000000004 84.319000000000003
391 67.224999999999994 89.850999999999999
392 19.757000000000001 24.335999999999999
393 28.780999999999999 71.385000000000005
394 24.863 62.362000000000002
395 77.019999999999996 74.025999999999996
396 60.380000000000003 20.175999999999998
397 80.159000000000006 77.988
398 81.700999999999993 68.036000000000001
399 37.034999999999997 77.004000000000005
400 29.949000000000002 19.055
401 31.792999999999999 66.447000000000003
402 32.090000000000003 41.600999999999999
403 22.741 56.835999999999999
404 31.41 69.843000000000004
405 65.200000000000003 31.378
406 64.784000000000006 34.789999999999999
407 23.527000000000001 76.004999999999995
408 30.696999999999999 37.875999999999998
409 61.664999999999999 27.09
410 20.170000000000002 76.858999999999995
411 25.753 59.295999999999999
412 69.760000000000005 84.358999999999995
413 75.817999999999998 69.918000000000006
414 19.451000000000001 75.224999999999994
415 59.956000000000003 32.366
416 0.095000000000000001 27.931999999999999
417 72.180000000000007 31.933
418 14.569000000000001 30.538
419 55.088000000000001 34.381
420 24.370000000000001 65.233999999999995
421 38.832999999999998 34.183999999999997
422 14.823 75.382999999999996
423 58.869999999999997 79.269000000000005
424 73.859999999999999 94.638000000000005
425 21.364000000000001 52.558999999999997
426 66.093000000000004 37.335000000000001
427 24.873000000000001 23.981999999999999
428 61.234999999999999 84.387
429 6.8550000000000004 65.486000000000004
430 67.593999999999994 27.574000000000002
431 48.646999999999998 32.960000000000001
432 66.751000000000005 12.148
433 46.902000000000001 28.806000000000001
434 23.047999999999998 25.731000000000002
435 55.438000000000002 71.841999999999999
436 65.718999999999994 28.215
437 67.828999999999994 19.594999999999999
438 42.865000000000002 34.207999999999998
439 76.239000000000004 29.652000000000001
440 22.169 26.905999999999999
441 31.013999999999999 35.453000000000003
442 17.283999999999999 64.689999999999998
443 18.920999999999999 67.557000000000002
444 36.188000000000002 37.219999999999999
445 21.838999999999999 70.140000000000001
446 4.2859999999999996 61.130000000000003
447 38.680999999999997 30.59
448 25.376999999999999 65.554000000000002
449 29.347000000000001 65.007999999999996
450 58.948999999999998 75.888999999999996
451 59.497 71.331999999999994
452 58.509 22.689
453 16.045999999999999 71.977000000000004
454 62.463999999999999 9.3680000000000003
455 58.939999999999998 28.719000000000001
456 65.777000000000001 24.622
457 22.643999999999998 52.704999999999998
458 65.334999999999994 29.164000000000001
459 65.438000000000002 83.575999999999993
460 20.314 55.091999999999999
461 18.398 67.503
462 56.840000000000003 22.713999999999999
463 64.665000000000006 74.953999999999994
464 14.801 28.713000000000001
465 10.878 55.658000000000001
466 72.817999999999998 78.900000000000006
467 80.415000000000006 82.024000000000001
468 27.701000000000001 57.715000000000003
469 19.812000000000001 74.896000000000001
470 70.019000000000005 70.614999999999995
471 33.848999999999997 31.606000000000002
472 16.715 75.471000000000004
473 39.381 29.167999999999999
474 73.873999999999995 19.122
475 34.966999999999999 61.204999999999998
476 27.125 75.078999999999994
477 60.921999999999997 70.930999999999997
478 73.915999999999997 81.158000000000001
479 5.617 73.617999999999995
480 63.832999999999998 26.440999999999999
481 31.390999999999998 73.688999999999993
482 69.027000000000001 27.954999999999998
483 17.045000000000002 81.701999999999998
484 64.954999999999998 38.360999999999997
485 76.281999999999996 60.875
486 58.828000000000003 10.579000000000001
487 57.183 16.721
488 73.093999999999994 74.933999999999997
489 68.754999999999995 83.653999999999996
490 27.969999999999999 68.069000000000003
491 61.896999999999998 13.066000000000001
492 69.858999999999995 22.356000000000002
493 75.799000000000007 78.596999999999994
494 72.605000000000004 27.782
495 79.253 76.634
496 69.394999999999996 18.155000000000001
497 63.645000000000003 73.369
498 58.241 32.216000000000001
499 38.323999999999998 35.872
500 20.806000000000001 44.359000000000002
501 59.234999999999999 22.678999999999998
502 61.962000000000003 78.564999999999998
503 82.260999999999996 62.972000000000001
504 63.875 76.596000000000004
505 12.632999999999999 64.801000000000002
506 36.862000000000002 30.927
507 28.481000000000002 29.071999999999999
508 64.454999999999998 28.835000000000001
509 65.456999999999994 72.724000000000004
510 62.408999999999999 76.352000000000004
511 27.341000000000001 63.994
512 16.553000000000001 47.106999999999999
513 16.608000000000001 57.222999999999999
514 21.879999999999999 75.409999999999997
515 30.419 42.969999999999999
516 61.421999999999997 77.596999999999994
517 65.441000000000003 76.753
518 70.831999999999994 27.603999999999999
519 69.039000000000001 86.052999999999997
520 40.305999999999997 36.295999999999999
521 27.798999999999999 64.284000000000006
522 80.356999999999999 11.134
523 66.581999999999994 99.275999999999996
524 31.349 26.466999999999999
525 17.541 56.334000000000003
526 32.505000000000003 80.991
527 61.817 15.069000000000001
528 19.594000000000001 48.304000000000002
529 18.451000000000001 26.628
530 30.786999999999999 67.623999999999995
531 43.207000000000001 35.341000000000001
532 66.712999999999994 25.398
533 14.694000000000001 80.010000000000005
534 39.494 68.751999999999995
535 74.843000000000004 86.501000000000005
536 24.843 60.661999999999999
537 20.794 23.709
538 31.632000000000001 16.952000000000002
539 30.655999999999999 25.375
540 62.509999999999998 30.451000000000001
541 63.603000000000002 85.635000000000005
542 27.306999999999999 30.43
543 58.378999999999998 90.897999999999996
544 32.988 30.812000000000001
545 72.701999999999998 23.288
546 68.635999999999996 27.192
547 69.640000000000001 19.613
548 63.710000000000001 27.547999999999998
549 32.783999999999999 20.556999999999999
550 66.046000000000006 36.198999999999998
551 35.615000000000002 62.515999999999998
552 34.604999999999997 22.244
553 32.194000000000003 69.766999999999996
554 34.698999999999998 17.648
555 79.513000000000005 74.198999999999998
556 63.741 74.141999999999996
557 51.652000000000001 72.481999999999999
558 58.417999999999999 74.359999999999999
559 74.775000000000006 79.570999999999998
560 63.860999999999997 72.614000000000004
561 34.936 71.379000000000005
562 21.021999999999998 71.909999999999997
563 72.182000000000002 38.558999999999997
564 35.084000000000003 22.896999999999998
565 66.138000000000005 33.244999999999997
566 19.597999999999999 32.122
567 59.256 69.554000000000002
568 27.866 15.926
569 56.311999999999998 14.198
570 57.973999999999997 14.432
571 3.823 66.481999999999999
572 9.7219999999999995 47.869
573 84.530000000000001 77.525999999999996
574 71.460999999999999 68.849999999999994
575 63.402000000000001 69.385999999999996
576 26.373999999999999 64.116
577 9.4160000000000004 70.400000000000006
578 26.100000000000001 19.693999999999999
579 70.543000000000006 68.424000000000007
580 82.588999999999999 21.785
581 38.646999999999998 23.111000000000001
582 71.049000000000007 83.549000000000007
583 59.673999999999999 34.991
584 33.917999999999999 66.611000000000004
585 67.566999999999993 37.130000000000003
586 71.503 39.819000000000003
587 19.943999999999999 17.937000000000001
588 70.477000000000004 72.906999999999996
589 69.748000000000005 89.712000000000003
590 31.356999999999999 42.311999999999998
591 49.747999999999998 26.626999999999999
592 67.385999999999996 86.596999999999994
593 23.350999999999999 62.292000000000002
594 53.414999999999999 33.792000000000002
595 63.546999999999997 34.906999999999996
596 76.909999999999997 22.135999999999999
597 23.199999999999999 66.911000000000001
598 71.075000000000003 85.546999999999997
599 35.398000000000003 18.224
600 76.777000000000001 72.287000000000006
601 18.501999999999999 27.055
602 62.914999999999999 31.257000000000001
603 32.493000000000002 30.128
604 36.189999999999998 38.170999999999999
605 71.424000000000007 81.441000000000003
606 62.527000000000001 88.495999999999995
607 78.426000000000002 79.269000000000005
608 65.372 88.838999999999999
609 32.241999999999997 66.061000000000007
610 66.093999999999994 32.613
611 58.506 73.606999999999999
612 26.509 26.114000000000001
613 67.328000000000003 70.406999999999996
614 22.338999999999999 42.091999999999999
615 73.950999999999993 86.778000000000006
616 64.313999999999993 72.274000000000001
617 53.863 20.632999999999999
618 23.550999999999998 71.727999999999994
619 11.468 60.774000000000001
620 61.947000000000003 87.158000000000001
621 71.344999999999999 17.635999999999999
622 67.578999999999994 73.816999999999993
623 33.040999999999997 27.936
624 61.484999999999999 22.077000000000002
625 63.103999999999999 32.651000000000003
626 22.911000000000001 66.353999999999999
627 25.613 22.222999999999999
628 23.119 72.138000000000005
629 27.433 17.783999999999999
630 75.557000000000002 85.078000000000003
631 25.187000000000001 22.353000000000002
632 77.784999999999997 75.116
633 30.856000000000002 25.126000000000001
634 78.268000000000001 15.163
635 60.274000000000001 70.304000000000002
636 17.695 48.003
637 43.639000000000003 25.440000000000001
638 27.213999999999999 33.988999999999997
639 63.720999999999997 85.346000000000004
640 17.413 62.033999999999999
641 35.052999999999997 23.588000000000001
642 34.594999999999999 49.235999999999997
643 36.845999999999997 22.175999999999998
644 33.837000000000003 28.815000000000001
645 19.109000000000002 62.345999999999997
646 57.423999999999999 95.164000000000001
647 30.236000000000001 32.548000000000002
648 83.379999999999995 72.795000000000002
649 63.564 79.757999999999996
650 65.850999999999999 71.531000000000006
651 60.884 70.926000000000002
652 52.560000000000002 19.754000000000001
653 58.204999999999998 75.683999999999997
654 61.594999999999999 17.091000000000001
655 71.771000000000001 37.158999999999999
656 46.402999999999999 25.364000000000001
657 33.134 50.787999999999997
658 67.725999999999999 86.677999999999997
659 26.309999999999999 29.157
660 24.562999999999999 26.597000000000001
661 52.323999999999998 5.5609999999999999
662 67.635000000000005 89.748000000000005
663 62.329000000000001 21.183
664 21.245999999999999 68.117000000000004
665 26.893999999999998 37.962000000000003
666 49.759 32.167999999999999
667 57.659999999999997 79.876000000000005
668 86.709000000000003 76.706999999999994
669 18.573 71.325000000000003
670 24.457999999999998 77.045000000000002
671 45.573 37.509
672 30.628 24.204000000000001
673 67.052000000000007 26.367999999999999
674 81.376000000000005 74.552999999999997
675 72.298000000000002 27.023
676 77.793000000000006 16.672000000000001
677 28.393999999999998 23.966000000000001
678 24.372 69.016000000000005
679 31.760000000000002 26.792000000000002
680 73.301000000000002 68.296999999999997
681 22.978999999999999 61.119999999999997
682 22.038 28.719999999999999
683 26.251000000000001 37.976999999999997
684 67.162999999999997 26.164000000000001
685 34.880000000000003 18.239000000000001
686 77.079999999999998 85.864999999999995
687 66.686999999999998 69.816000000000003
688 31.309999999999999 75.841999999999999
689 28.614999999999998 26.716000000000001
690 62.793999999999997 80.388000000000005
691 74.043000000000006 74.260999999999996
692 25.271999999999998 21.945
693 28.568000000000001 64.978999999999999
694 23.751999999999999 57.097000000000001
695 64.981999999999999 20.247
696 83.069999999999993 77.186000000000007
697 80.635999999999996 73.183999999999997
698 24.02 35.984000000000002
699 69.561000000000007 48.954000000000001
700 71.088999999999999 82.992000000000004
701 24.303000000000001 71.75
702 55.841000000000001 27.459
703 73.632000000000005 73.929000000000002
704 79.858999999999995 84.230000000000004
705 69.894000000000005 62.652999999999999
706 66.299000000000007 27.556000000000001
707 65.619 22.439
708 63.043999999999997 34.957999999999998
709 41.381999999999998 24.129000000000001
710 65.123000000000005 23.898
711 64.349000000000004 15.771000000000001
712 28.823 68.170000000000002
713 68.548000000000002 71.287999999999997
714 19.085999999999999 80.108000000000004
715 78.697000000000003 55.649999999999999
716 13.51 77.241
717 41.786999999999999 24.818000000000001
718 79.031999999999996 18.225999999999999
719 30.023 30.073
720 32.743000000000002 30.23
721 25.012 25.588000000000001
722 52.509999999999998 25.102
723 50.993000000000002 92.725999999999999
724 63.442 33.396000000000001
725 76.186000000000007 20.16
726 29.795000000000002 25.975000000000001
727 58.750999999999998 20.048999999999999
728 81.337000000000003 25.707000000000001
729 38.279000000000003 17.227
730 31.288 74.244
731 23.706 64.049000000000007
732 19.896999999999998 52.335999999999999
733 40.901000000000003 25.387
734 30.233000000000001 62.313000000000002
735 22.82 17.706
736 54.235999999999997 38.043999999999997
737 63.005000000000003 30.506
738 65.254999999999995 85.069000000000003
739 19.934000000000001 74.584999999999994
740 32.395000000000003 58.493000000000002
741 74.846000000000004 66.628
742 25.856999999999999 25.173999999999999
743 76.882000000000005 67.733999999999995
744 46.579000000000001 33.984999999999999
745 69.385999999999996 74.629000000000005
746 63.075000000000003 34.819000000000003
747 71.986000000000004 35.377000000000002
748 63.052999999999997 22.350999999999999
749 39.365000000000002 31.135999999999999
750 76.372 36.616999999999997
751 23.428000000000001 54.560000000000002
752 50.488 80.097999999999999
753 28.632000000000001 24.484999999999999
754 64.445999999999998 85.230999999999995
755 30.995000000000001 24.207999999999998
756 21.763000000000002 18.692
757 10.824999999999999 69.206000000000003
758 63.807000000000002 87.372
759 63.417999999999999 65.832999999999998
760 21.478000000000002 65.768000000000001
761 62.597000000000001 33.252000000000002
762 27.013999999999999 63.375999999999998
763 63.165999999999997 77.197999999999993
764 75.816999999999993 83.275999999999996
765 66.563999999999993 81.113
766 38.154000000000003 30.879000000000001
767 36.097999999999999 26.763999999999999
768 75.786000000000001 27.503
769 21.248999999999999 61.381999999999998
770 17.783999999999999 74.469999999999999
771 83.921000000000006 90.974999999999994
772 72.266999999999996 18.431000000000001
773 62.866 25.602
774 76.745999999999995 79.189999999999998
775 15.326000000000001 35.091999999999999
776 19.853999999999999 75.290000000000006
777 58.572000000000003 26.48
778 34.648000000000003 19.091000000000001
779 65.894000000000005 80.590000000000003
780 28.356999999999999 33.448
781 27.359000000000002 28.341999999999999
782 49.712000000000003 29.527999999999999
783 62.350000000000001 18.154
784 71.543000000000006 76.376000000000005
785 14.49 22.271000000000001
786 49.247999999999998 63.100999999999999
787 64.995999999999995 12.532999999999999
788 44.037999999999997 76.878
789 70.370000000000005 8.0909999999999993
790 71.183999999999997 85.341999999999999
791 31.175000000000001 68.129000000000005
792 70.584999999999994 79.546000000000006
793 68.933999999999997 84.748999999999995
794 55.655000000000001 85.353999999999999
795 56.313000000000002 72.811000000000007
796 51.853999999999999 29.861000000000001
797 57.228000000000002 80.629999999999995
798 9.8529999999999998 24.734999999999999
799 36.195 57.417999999999999
800 66.052000000000007 15.613
801 82.001000000000005 74.677999999999997
802 14.221 23.969999999999999
803 29.469000000000001 30.242000000000001
804 34.990000000000002 27.401
805 61.912999999999997 31.946000000000002
806 36.978000000000002 24.556000000000001
807 62.978000000000002 85.668999999999997
808 71.849999999999994 78.060000000000002
809 29.341999999999999 26.015999999999998
810 58.374000000000002 30.318999999999999
811 74.055999999999997 82.028000000000006
812 32.728000000000002 16.484999999999999
813 31.081 72.316999999999993
814 66.744 75.091999999999999
815 36.549999999999997 19.559000000000001
816 35.776000000000003 24.734999999999999
817 67.629000000000005 9.6959999999999997
818 24.991 24.888000000000002
819 70.659999999999997 20.196000000000002
820 74.974000000000004 68.863
821 27.097999999999999 17.312999999999999
822 34.703000000000003 69.054000000000002
823 72.161000000000001 84.590999999999994
824 61.182000000000002 31.594999999999999
825 16.521000000000001 26.018000000000001
826 80.183000000000007 24.413
827 30.23 13.74
828 32.668999999999997 14.942
829 15.574999999999999 65.147999999999996
830 23.387 63.406999999999996
831 71.477999999999994 24.902999999999999
832 32.304000000000002 62.893000000000001
833 30.565999999999999 26.155999999999999
834 26.902999999999999 20.785
835 30.041 80.748000000000005
836 14.728999999999999 74.971999999999994
837 75.652000000000001 69.144000000000005
838 69.953000000000003 79.388000000000005
839 65.182000000000002 65.537999999999997
840 60.561999999999998 97.364000000000004
841 80.569999999999993 22.433
842 2.827 74.075000000000003
843 62.204000000000001 27.805
844 25.446000000000002 49.540999999999997
845 66.903999999999996 70.799000000000007
846 74.390000000000001 75.727999999999994
847 23.803999999999998 62.066000000000003
848 44.061999999999998 33.305999999999997
849 14.097 35.036000000000001
850 27.789999999999999 78.186999999999998
851 82.611000000000004 74.156999999999996
852 23.216000000000001 64.989999999999995
853 58.087000000000003 25.109000000000002
854 78.213999999999999 20.751999999999999
855 38.774999999999999 24.905999999999999
856 66.938000000000002 23.445
857 30.736999999999998 25.885000000000002
858 22.645 47.918999999999997
859 71.244 18.241
860 74.433000000000007 83.239999999999995
861 34.090000000000003 23.768000000000001
862 70.147999999999996 71.043999999999997
863 58.889000000000003 22.646000000000001
864 25.542000000000002 35.087000000000003
865 44.700000000000003 32.439
866 61.472000000000001 76.278999999999996
867 54.689999999999998 85.941000000000003
868 63.125 72.772999999999996
869 66.558999999999997 26.039000000000001
870 58.697000000000003 73.334000000000003
871 56.668999999999997 73.453000000000003
872 64.320999999999998 77.561000000000007
873 64.239000000000004 75.695999999999998
874 41.442999999999998 35.212000000000003
875 56.026000000000003 20.917999999999999
876 19.620999999999999 64.317999999999998
877 68.069999999999993 16.428999999999998
878 69.251000000000005 37.444000000000003
879 19.873999999999999 22.555
880 60.543999999999997 17.489999999999998
881 39.691000000000003 32.482999999999997
882 78.739000000000004 19.384
883 76.748999999999995 77.834000000000003
884 63.679000000000002 23.161000000000001
885 35.180999999999997 74.510000000000005
886 61.188000000000002 25.523
887 42.548999999999999 31.690999999999999
888 25.423999999999999 64.495999999999995
889 34.173000000000002 35.246000000000002
890 56.685000000000002 82.609999999999999
891 77.379999999999995 35.648000000000003
892 36.655000000000001 33.436999999999998
893 67.212000000000003 17.756
894 28.736000000000001 35.18
895 18.419 63.744
896 59.994999999999997 83.022999999999996
897 35.125 15.132
898 42.768000000000001 28.228999999999999
899 59.491999999999997 36.991
900 60.579999999999998 93.501999999999995
901 78.941999999999993 29.390999999999998
902 29.088999999999999 73.385999999999996
903 24.071000000000002 69.864999999999995
904 77.977000000000004 69.795000000000002
905 62.530999999999999 22.446000000000002
906 18.521999999999998 64.680999999999997
907 55.719000000000001 21.175000000000001
908 68.188999999999993 78.525999999999996
909 62.540999999999997 15.484999999999999
910 54.354999999999997 20.952999999999999
911 22.591000000000001 73.087000000000003
912 32.447000000000003 27.254000000000001
913 66.444000000000003 20.337
914 55.957999999999998 13.010999999999999
915 30.193999999999999 25.099
916 56.295000000000002 79.623999999999995
917 28.088999999999999 31.756
918 11.254 61.707000000000001
919 54.405999999999999 40.240000000000002
920 69.605999999999995 68.536000000000001
921 57.731000000000002 78.480000000000004
922 21.417999999999999 55.567
923 31.698 81.762
924 57.283000000000001 30.135000000000002
925 72.375 12.661
926 19.681999999999999 23.204999999999998
927 31.295000000000002 26.273
928 75.662999999999997 82.183999999999997
929 56.301000000000002 86.629000000000005
930 59.097000000000001 25.625
931 27.146000000000001 26.177
932 16.545000000000002 53.082000000000001
933 30.870000000000001 39.058999999999997
934 47.146000000000001 75.724000000000004
935 52.030000000000001 28.84
936 28.524000000000001 71.552000000000007
937 10.843 49.591000000000001
938 35.125 26.059999999999999
939 42.006999999999998 23.728000000000002
940 68.745000000000005 29.149999999999999
941 60.868000000000002 71.670000000000002
942 68.063999999999993 14.316000000000001
943 68.189999999999998 26.856000000000002
944 29.085000000000001 65.951999999999998
945 13.516 75.724999999999994
946 36.776000000000003 26.248000000000001
947 60.106999999999999 24.323
948 25.628 62.982999999999997
949 22.460999999999999 58.165999999999997
950 24.905999999999999 22.515000000000001
951 25.942 66.100999999999999
952 77.076999999999998 77.733999999999995
953 34.054000000000002 36.573999999999998
954 12.746 72.046000000000006
955 81.772000000000006 81.921000000000006
956 16.565000000000001 18.323
957 29.754999999999999 53.728999999999999
958 24.004000000000001 33.064
959 33.384999999999998 24.510999999999999
960 63.963999999999999 23.760999999999999
961 24.920999999999999 20.391999999999999
962 22.149000000000001 25.361999999999998
963 42.905999999999999 29.347999999999999
964 41.201999999999998 20.890000000000001
965 29.32 34.305999999999997
966 21.483000000000001 65.531999999999996
967 36.435000000000002 33.939
968 63.499000000000002 42.087000000000003
969 71.494 23.273
970 23.664999999999999 59.753
971 61.505000000000003 34.353999999999999
972 66.376000000000005 27.876999999999999
973 49.125999999999998 20.341000000000001
974 73.826999999999998 75.432000000000002
975 52.597999999999999 79.266000000000005
976 58.468000000000004 74.269999999999996
977 31.241 30.832000000000001
978 64.563999999999993 27.044
979 61.838999999999999 17.213999999999999
980 30.372 48.045000000000002
981 63.021000000000001 74
982 21.302 34.808
983 47.039000000000001 13.984999999999999
984 13.949999999999999 30.565000000000001
985 27.32 30.687999999999999
986 64.899000000000001 26.934000000000001
987 73.884 75.680999999999997
988 44.473999999999997 23.248000000000001
989 68.869 81.936999999999998
990 68.435000000000002 75.079999999999998
991 33.216999999999999 76.619
992 72.852999999999994 68.891999999999996
993 58.048999999999999 79.855999999999995
994 37.628 17.969999999999999
995 18.395 69.703000000000003
996 23.475999999999999 59.593000000000004
997 67.149000000000001 70.942999999999998
998 60.704999999999998 11.663
999 44.914000000000001 60.103000000000002
1000 72.046000000000006 19.634
1001 26.471 24.771999999999998
1002 26.975999999999999 69.400999999999996
1003 13.66 54.945
1004 56.639000000000003 20.280000000000001
1005 33.447000000000003 36.537999999999997
1006 20.587 27.082000000000001
1007 7.1029999999999998 76.552999999999997
1008 72.122 14.722
1009 34.662999999999997 36.436999999999998
1010 27.93 29.536999999999999
1011 11.102 62.374000000000002
1012 78.138999999999996 17.510999999999999
1013 52.241999999999997 5.5220000000000002
1014 61.206000000000003 25.34
1015 58.979999999999997 20.187000000000001
1016 74.135000000000005 21.928000000000001
1017 21.311 53.564
1018 44.564 36.445
1019 31.195 29.872
1020 61.926000000000002 83.513999999999996
1021 32.298999999999999 25.946999999999999
1022 73.140000000000001 69.582999999999998
1023 20.308 68.808999999999997
1024 47.491 72.977000000000004
1025 15.709 67.186999999999998
1026 65.268000000000001 71.876999999999995
1027 29.559999999999999 12.754
1028 66.741 74.215999999999994
1029 56.780000000000001 29.216000000000001
1030 21.359000000000002 26.609999999999999
1031 36.619999999999997 66.423000000000002
1032 50.884999999999998 30.486000000000001
1033 61.935000000000002 84.135999999999996
1034 34.103999999999999 27.068000000000001
1035 66.322999999999993 88.888999999999996
1036 46.575000000000003 29.991
1037 54.152999999999999 27.515000000000001
1038 78.426000000000002 71.611999999999995
1039 37.189 22.024000000000001
1040 20.984000000000002 21.431999999999999
1041 61.798000000000002 82.420000000000002
1042 59.539999999999999 22.504999999999999
1043 68.331000000000003 38.244999999999997
1044 24.280000000000001 64.039000000000001
1045 53.735999999999997 81.350999999999999
1046 33.314999999999998 70.447999999999993
1047 64.780000000000001 14.869999999999999
1048 28.289999999999999 34.561
1049 82.162000000000006 78.721000000000004
1050 82.206000000000003 79.783000000000001
1051 23.831 70.186999999999998
1052 22 64.113
1053 30.260999999999999 35.036999999999999
1054 23.297999999999998 63.215000000000003
1055 70.701999999999998 82.649000000000001
1056 59.424999999999997 29.356999999999999
1057 33.761000000000003 24.221
1058 23.824000000000002 65.094999999999999
1059 68.254000000000005 77.917000000000002
1060 21.721 64.494
1061 69.539000000000001 17.367000000000001
1062 30.277999999999999 27.606999999999999
1063 31.728000000000002 13.913
1064 69.924000000000007 87.510000000000005
1065 31.030999999999999 26.971
1066 61.947000000000003 85.747
1067 55.07 85.733000000000004
1068 52.920999999999999 73.859999999999999
1069 76.426000000000002 79.453999999999994
1070 27.963000000000001 61.213999999999999
1071 78.192999999999998 83.641999999999996
1072 54.777999999999999 26.030999999999999
1073 37.744999999999997 23.218
1074 19.864000000000001 65.260000000000005
1075 74.631 31.093
1076 15.710000000000001 67.685000000000002
1077 62.188000000000002 71.890000000000001
1078 66.298000000000002 21.981000000000002
1079 63.081000000000003 21.978000000000002
1080 61.841000000000001 67.433999999999997
1081 69.638999999999996 83.409000000000006
1082 73.108000000000004 93.563000000000002
1083 20.120000000000001 59.502000000000002
1084 74.671999999999997 95.337999999999994
1085 64.176000000000002 28.765999999999998
1086 35.816000000000003 64.049999999999997
1087 27.695 21.904
1088 54.134999999999998 23.175999999999998
1089 65.825000000000003 25.556000000000001
1090 26.800000000000001 27.234999999999999
1091 81.320999999999998 80.281999999999996
1092 66.105000000000004 28.033000000000001
1093 25.888000000000002 54.048999999999999
1094 55.213000000000001 35.439
1095 30.719000000000001 21.734999999999999
1096 33.843000000000004 34.659999999999997
1097 76.135000000000005 82.432000000000002
1098 19.279 53.5
1099 62.689 72.962999999999994
1100 71.418999999999997 66.418999999999997
1101 65.956999999999994 77.153000000000006
1102 26.138000000000002 18.907
1103 68.084000000000003 83.489999999999995
1104 38.423999999999999 34.661000000000001
1105 61.531999999999996 15.987
1106 53.265999999999998 11.880000000000001
1107 61.381 31.036000000000001
1108 70.575999999999993 94.123000000000005
1109 60.506 67.908000000000001
1110 9.3100000000000005 73.194000000000003
1111 58.329000000000001 24.239999999999998
1112 69.873000000000005 93.582999999999998
1113 23.992999999999999 56.718000000000004
1114 34.835000000000001 21.928999999999998
1115 34.399000000000001 37.749000000000002
1116 65.790999999999997 78.302000000000007
1117 22.166 33.051000000000002
1118 27.548999999999999 29.771999999999998
1119 67.584000000000003 77.656000000000006
1120 17.908000000000001 27.164000000000001
1121 31.363 13.645
1122 66.375 10.955
1123 9.0739999999999998 67.674999999999997
1124 59.698999999999998 83.989999999999995
1125 66.992000000000004 32.767000000000003
1126 32.487000000000002 23.062000000000001
1127 20.302 59.741999999999997
1128 62.198999999999998 88.222999999999999
1129 36.652000000000001 75.179000000000002
1130 23.623000000000001 60.124000000000002
1131 59.82 99.171000000000006
1132 37.933 65.719999999999999
1133 18.997 63.511000000000003
1134 21.350999999999999 32.914000000000001
1135 23.780999999999999 13.718999999999999
1136 68.155000000000001 83.816999999999993
1137 55.371000000000002 15.986000000000001
1138 69.206000000000003 89.579999999999998
1139 61.628999999999998 35.851999999999997
1140 68.397999999999996 67.456000000000003
1141 84.031000000000006 81.040999999999997
1142 26.859999999999999 20.523
1143 68.244 90.194999999999993
1144 71.756 29.954000000000001
1145 73.543000000000006 92.078999999999994
1146 16.274000000000001 12.922000000000001
1147 60.262 78.826999999999998
1148 65.061000000000007 68.307000000000002
1149 68.832999999999998 25.105
1150 59.686 30.963000000000001
1151 65.840999999999994 18.387
1152 66.894999999999996 81.364999999999995
1153 75.293000000000006 21.477
1154 16.826000000000001 75.704999999999998
1155 22.364000000000001 22.439
1156 73.316999999999993 89.638999999999996
1157 63.258000000000003 73.971000000000004
1158 27.460000000000001 58.789999999999999
1159 63.616999999999997 18.405000000000001
1160 28.119 75.311999999999998
1161 44.908000000000001 27.684000000000001
1162 62.594000000000001 32.478000000000002
1163 14.853999999999999 72.424000000000007
1164 61.881 29.169
1165 60.283000000000001 30.263000000000002
1166 68.286000000000001 68.587999999999994
1167 42.719000000000001 21.247
1168 55.298000000000002 70.724999999999994
1169 62.256 11.865
1170 36.195999999999998 59.338000000000001
1171 69.838999999999999 29.077000000000002
1172 21.920000000000002 59.517000000000003
1173 25.594999999999999 64.037999999999997
1174 32.832999999999998 32.451000000000001
1175 31.707000000000001 32.607999999999997
1176 66.942999999999998 89.722999999999999
1177 25.837 66.811999999999998
1178 73.573999999999998 76.156999999999996
1179 22.033999999999999 33.945
1180 14.68 59.247
1181 61.002000000000002 77.409999999999997
1182 49.037999999999997 68.963999999999999
1183 22.009 17.507999999999999
1184 63.853000000000002 61.932000000000002
1185 18.131 78.853999999999999
1186 69.599999999999994 18.143000000000001
1187 25.224 25.827000000000002
1188 66.010999999999996 94.094999999999999
1189 29.542999999999999 19.850999999999999
1190 30.812999999999999 30.646000000000001
1191 40.887 35.427999999999997
1192 25.326000000000001 54.664000000000001
1193 57.432000000000002 36.969000000000001
1194 20.376999999999999 53.131999999999998
1195 70.835999999999999 80.835999999999999
1196 29.224 67.879000000000005
1197 64.200000000000003 84.323999999999998
1198 69.5 83.652000000000001
1199 68.643000000000001 82.316999999999993
1200 57.603999999999999 21.667999999999999
1201 33.420999999999999 33.776000000000003
1202 50.555 21.356000000000002
1203 71.924000000000007 21.972000000000001
1204 67.066000000000003 82.960999999999999
1205 21.117000000000001 36.926000000000002
1206 27.545999999999999 25.350999999999999
1207 53.786000000000001 22.707999999999998
1208 63.661000000000001 86.453999999999994
1209 19.27 17.628
1210 29.544 60.271000000000001
1211 57.518999999999998 68.399000000000001
1212 73.030000000000001 28.762
1213 28.494 66.174000000000007
1214 7.6269999999999998 67.436000000000007
1215 60.222000000000001 77.769999999999996
1216 63.213999999999999 23.608000000000001
1217 42.758000000000003 30.135000000000002
1218 15.394 57.125
1219 31.626999999999999 21.655999999999999
1220 74.349000000000004 75.064999999999998
1221 60.850000000000001 74.093999999999994
1222 55.642000000000003 27.792999999999999
1223 27.645 26.170000000000002
1224 26.776 35.463000000000001
1225 67.150000000000006 69.960999999999999
1226 60.063000000000002 26.111999999999998
1227 69.822999999999993 21.190999999999999
1228 63.683999999999997 13.919
1229 15.518000000000001 65.759
1230 58.195 29.137
1231 70.427999999999997 78.900000000000006
1232 61.601999999999997 36.231999999999999
1233 70.230000000000004 89.581999999999994
1234 27.132000000000001 31.997
1235 68.700000000000003 66.921000000000006
1236 72.165000000000006 28.198
1237 20.565000000000001 61.255000000000003
1238 57.960999999999999 31.742000000000001
1239 73.200000000000003 75.387
1240 40.323 17.808
1241 60.929000000000002 82.236999999999995
1242 17.98 82.317999999999998
1243 12.329000000000001 58.579000000000001
1244 5.181 60.414000000000001
1245 29.146999999999998 64.579999999999998
1246 62.109000000000002 83.492999999999995
1247 71.611999999999995 32.262999999999998
1248 66.388999999999996 18.797999999999998
1249 26.427 57.472000000000001
1250 63.892000000000003 25.573
1251 56.917000000000002 80.152000000000001
1252 56.058 81.668000000000006
1253 77.575999999999993 72.629999999999995
1254 47.502000000000002 26.664999999999999
1255 18.004000000000001 56.323
1256 13.153 60.079000000000001
1257 68.373000000000005 71.768000000000001
1258 69.852000000000004 44.567
1259 8.1769999999999996 62.756
1260 19.789000000000001 35.292999999999999
1261 82.241 21.809999999999999
1262 61.384999999999998 24.452000000000002
1263 38.582999999999998 57.673999999999999
1264 27.692 60.137
1265 28.649000000000001 77.257000000000005
1266 41.146999999999998 21.277000000000001
1267 38.656999999999996 25.872
1268 27.210000000000001 66.807000000000002
1269 18.016999999999999 76.165999999999997
1270 64.084999999999994 19.276
1271 24.631 64.125
1272 40.908000000000001 14.436999999999999
1273 22.687000000000001 33.616
1274 34.337000000000003 22.283000000000001
1275 16.654 74.489999999999995
1276 25.555 58.255000000000003
1277 57.609000000000002 53.018999999999998
1278 63.573999999999998 71.076999999999998
1279 16.521999999999998 59.179000000000002
1280 14.741 73.873999999999995
1281 67.245000000000005 24.106999999999999
1282 57.018000000000001 76.438999999999993
1283 25.074999999999999 25.975000000000001
1284 65.802999999999997 32.838000000000001
1285 69.206999999999994 83.447000000000003
1286 80.302000000000007 82.364000000000004
1287 13.220000000000001 75.483000000000004
1288 26.571999999999999 97.495000000000005
1289 69.329999999999998 90.349999999999994
1290 3.6720000000000002 78.504000000000005
1291 18.937999999999999 52.404000000000003
1292 35.838999999999999 71.745000000000005
1293 70.206999999999994 25.797999999999998
1294 64.263000000000005 9.4700000000000006
1295 76.784000000000006 27.428000000000001
1296 67.510999999999996 24.555
1297 65.183999999999997 90.507000000000005
1298 43.237000000000002 16.372
1299 26.68 28.864999999999998
1300 72.159000000000006 15.654999999999999
1301 68.486999999999995 37.558
1302 34.619 58.764000000000003
1303 72.936999999999998 93.950000000000003
1304 62.258000000000003 67.516000000000005
1305 59.570999999999998 75.611999999999995
1306 67.280000000000001 83.891000000000005
1307 62.624000000000002 24.952999999999999
1308 28.939 40.313000000000002
1309 24.489999999999998 33.619999999999997
1310 53.438000000000002 27.402000000000001
1311 38.356999999999999 16.297000000000001
1312 24.934000000000001 61.508000000000003
1313 60.072000000000003 17.649000000000001
1314 64.983000000000004 81.609999999999999
1315 52.658999999999999 17.811
1316 73.108999999999995 20.829999999999998
1317 25.009 27.664999999999999
1318 69.106999999999999 21.140000000000001
1319 69.948999999999998 16.818999999999999
1320 13.606999999999999 64.808999999999997
1321 21.236000000000001 67.847999999999999
1322 21.587 60.457000000000001
1323 72.245000000000005 27.972000000000001
1324 76.120000000000005 25.337
1325 13.315 60.228000000000002
1326 68.343999999999994 29.765000000000001
1327 36.021999999999998 14.631
1328 19.806000000000001 76.350999999999999
1329 39.521000000000001 18.731000000000002
1330 73.927000000000007 71.924999999999997
1331 56.488999999999997 20.516999999999999
1332 55.609999999999999 78.113
1333 61.008000000000003 56.006
1334 31.167000000000002 55.890999999999998
1335 78.686000000000007 77.195999999999998
1336 38.345999999999997 33.710000000000001
1337 66.004999999999995 29.341999999999999
1338 51.046999999999997 21.199000000000002
1339 65.099000000000004 86.421999999999997
1340 69.792000000000002 36.831000000000003
1341 13.746 59.749000000000002
1342 40.484000000000002 38.240000000000002
1343 34.228999999999999 40.552999999999997
1344 24.91 58.552999999999997
1345 23.177 58.520000000000003
1346 69.977999999999994 26.266999999999999
1347 65.828000000000003 21.128
1348 62.396000000000001 65.403999999999996
1349 63.845999999999997 26.895
1350 65.427000000000007 79.191999999999993
1351 32.593000000000004 22.199000000000002
1352 70.905000000000001 9.7599999999999998
1353 78.340999999999994 15.145
1354 72.634 73.138999999999996
1355 11.808999999999999 21.007000000000001
1356 22.245000000000001 57.363
1357 67.572999999999993 76.287000000000006
1358 66.840000000000003 73.347999999999999
1359 62.399999999999999 72.460999999999999
1360 62.195 75.846000000000004
1361 66.533000000000001 77.747
1362 25.420000000000002 59.012
1363 21.588999999999999 54.442999999999998
1364 33.671999999999997 57.246000000000002
1365 66.203000000000003 37.817
1366 67.299000000000007 70.757999999999996
1367 17.638000000000002 30.233000000000001
1368 61.926000000000002 76.814999999999998
1369 66.346000000000004 86.980000000000004
1370 25.050999999999998 17.829999999999998
1371 27.991 27.062999999999999
1372 64.489999999999995 68.078000000000003
1373 74.146000000000001 75
1374 70.682000000000002 14.683
1375 60.798999999999999 38.520000000000003
1376 32.496000000000002 41.106000000000002
1377 29.899999999999999 30.515999999999998
1378 62.302 94.876000000000005
1379 21.597000000000001 69.278999999999996
1380 61.308 69.697000000000003
1381 78.391999999999996 85.233000000000004
1382 44.536999999999999 27.103000000000002
1383 73.795000000000002 63.542000000000002
1384 70.448999999999998 24.248000000000001
1385 53.862000000000002 38.777000000000001
1386 79.584999999999994 89.519999999999996
1387 70.555999999999997 33.136000000000003
1388 73.081000000000003 14.288
1389 70.244 84.161000000000001
1390 56.475000000000001 31.951000000000001
1391 67.885999999999996 77.489999999999995
1392 20.550000000000001 87.489000000000004
1393 55.658999999999999 29.742000000000001
1394 26.975999999999999 62.646999999999998
1395 37.299999999999997 33.585999999999999
1396 62.576000000000001 90.290999999999997
1397 64.498999999999995 24.395
1398 14.318 54.942
1399 26.623999999999999 26.010000000000002
1400 32.835999999999999 18.068999999999999
1401 64.141000000000005 16.390000000000001
1402 29.431000000000001 9.0969999999999995
1403 28.850000000000001 65.713999999999999
1404 56.667000000000002 79.697000000000003
1405 15.654999999999999 72.885000000000005
1406 29.283999999999999 68.328999999999994
1407 39.325000000000003 23.718
1408 52.603999999999999 24.323
1409 24.600999999999999 25.062999999999999
1410 14.287000000000001 59.484000000000002
1411 27.663 25.632000000000001
1412 71.897000000000006 23.036999999999999
1413 58.780000000000001 23.257999999999999
1414 29.157 78.149000000000001
1415 28.222999999999999 78.277000000000001
1416 24.555 53.779000000000003
1417 75.010000000000005 76.409999999999997
1418 69.451999999999998 25.652999999999999
1419 76.340999999999994 76.248000000000005
1420 70.427000000000007 90.063000000000002
1421 66.040999999999997 36.829000000000001
1422 80.525000000000006 83.629000000000005
1423 69.369 58.540999999999997
1424 19.995999999999999 72.168999999999997
1425 67.971999999999994 16.606000000000002
1426 68.570999999999998 71.858000000000004
1427 59.396000000000001 89.787000000000006
1428 35.451000000000001 57.384999999999998
1429 42.106000000000002 28.966000000000001
1430 76.784000000000006 79.959000000000003
1431 29.009 25.312999999999999
1432 33.366 19.547000000000001
1433 21.420999999999999 63.853000000000002
1434 22.837 69.430000000000007
1435 28.922000000000001 24.396999999999998
1436 78.671999999999997 21.449999999999999
1437 66.790999999999997 64.837000000000003
1438 77.537999999999997 75.197000000000003
1439 15.920999999999999 25.023
1440 8.8629999999999995 64.271000000000001
1441 28.826000000000001 37.052
1442 36.674999999999997 34.835000000000001
1443 64.109999999999999 77.048000000000002
1444 69.471999999999994 71.356999999999999
1445 27.934000000000001 57.667000000000002
1446 67.790999999999997 39.853999999999999
1447 13.712999999999999 74.561000000000007
1448 27.594999999999999 30.210999999999999
1449 28.48 72.947999999999993
1450 35.607999999999997 57.438000000000002
1451 64.965000000000003 30.992999999999999
1452 78.028999999999996 60.302
1453 70.203000000000003 77.409999999999997
1454 38.436999999999998 78.284999999999997
1455 31.847000000000001 70.861999999999995
1456 20.952000000000002 44.409999999999997
1457 12.949999999999999 52.533000000000001
1458 24.251999999999999 24.419
1459 13.034000000000001 58.500999999999998
1460 81.909999999999997 96.159000000000006
1461 61.430999999999997 89.439999999999998
1462 59.555 84.033000000000001
1463 23.047999999999998 74.063000000000002
1464 62.606000000000002 80.126000000000005
1465 50.363999999999997 74.063999999999993
1466 67.846000000000004 31.248000000000001
1467 31.562999999999999 19.202999999999999
1468 23.036000000000001 69.198999999999998
1469 58.076000000000001 79.584000000000003
1470 18.678999999999998 76.533000000000001
1471 34.345999999999997 77.849000000000004
1472 25.619 62.256999999999998
1473 20.361999999999998 94.715999999999994
1474 61.637999999999998 81.412999999999997
1475 25.395 26.053000000000001
1476 19.783999999999999 88.483999999999995
1477 37.698 34.625
1478 85.807000000000002 17.419
1479 75.299999999999997 87.557000000000002
1480 34.768999999999998 21.431000000000001
1481 23.443000000000001 23.911000000000001
1482 26.007999999999999 67.790000000000006
1483 21.358000000000001 58.320999999999998
1484 60.600000000000001 83.866
1485 67.819000000000003 84.742000000000004
1486 58.581000000000003 19.463000000000001
1487 56.061 29.818999999999999
1488 73.75 28.763999999999999
1489 62.776000000000003 89.942999999999998
1490 34.786999999999999 27.971
1491 33.036000000000001 69.841999999999999
1492 60.512999999999998 86.974999999999994
1493 66.829999999999998 84.644999999999996
1494 67.375 90.603999999999999
1495 56.692999999999998 23.672999999999998
1496 65.180000000000007 15.026
1497 32.692999999999998 27.925000000000001
1498 32.838000000000001 65.156000000000006
1499 11.231 69.694000000000003
1500 29.949000000000002 44.188000000000002
1501 34.502000000000002 75.242000000000004
1502 74.897999999999996 68.366
1503 61.262 27.582000000000001
1504 59.573999999999998 90.144000000000005
1505 71.667000000000002 27.600999999999999
1506 63.966999999999999 79.091999999999999
1507 73.703999999999994 79.441000000000003
1508 19.117000000000001 58.203000000000003
1509 21.901 49.277000000000001
1510 76.873000000000005 27.251999999999999
1511 74.106999999999999 68.515000000000001
1512 21.213000000000001 39.485999999999997
1513 35.719000000000001 66.834000000000003
1514 35.703000000000003 55.520000000000003
1515 23.779 66.429000000000002
1516 57.465000000000003 87.203999999999994
1517 66.977999999999994 34.088000000000001
1518 74.486999999999995 87.677000000000007
1519 20.236000000000001 53.261000000000003
1520 72.185000000000002 81.174999999999997
1521 71.319000000000003 31.276
1522 30.567 69.323999999999998
1523 26.207999999999998 34.399999999999999
1524 58.738 23.094000000000001
1525 22.798999999999999 79.344999999999999
1526 70.335999999999999 79.847999999999999
1527 24.550000000000001 25.463999999999999
1528 19.77 56.253
1529 72.719999999999999 58.421999999999997
1530 24.460999999999999 79.165999999999997
1531 23.382000000000001 69.622
1532 29.593 35.148000000000003
1533 26.407 62.615000000000002
1534 70.280000000000001 73.120000000000005
1535 60.482999999999997 23.484000000000002
1536 65.001000000000005 83.555000000000007
1537 17.388999999999999 65.957999999999998
1538 36.048000000000002 20.123999999999999
1539 83.697000000000003 30.047999999999998
1540 34.560000000000002 26.023
1541 52.430999999999997 20.968
1542 34.167000000000002 57.719999999999999
1543 21.302 63.280999999999999
1544 66.439999999999998 84.512
1545 37.381 30.044
1546 66.591999999999999 29.291
1547 64.486000000000004 41.482999999999997
1548 68.334000000000003 82.025999999999996
1549 17.207999999999998 72.293999999999997
1550 69.283000000000001 20.919
1551 65.049000000000007 28.169
1552 64.337999999999994 81.379000000000005
1553 18.613 71.768000000000001
1554 26.498000000000001 43.848999999999997
1555 63.451999999999998 26.975999999999999
1556 19.472999999999999 29.024000000000001
1557 25.384 25.678000000000001
1558 45.170999999999999 32.113
1559 29.039000000000001 20.381
1560 17.292000000000002 69.948999999999998
1561 19.327000000000002 9.0600000000000005
1562 10.816000000000001 66.930000000000007
1563 32.478999999999999 26.998999999999999
1564 33.652000000000001 65.754000000000005
1565 56.720999999999997 19.675999999999998
1566 72.308000000000007 79.613
1567 29.5 67.528999999999996
1568 57.197000000000003 78.605000000000004
1569 76.930999999999997 74.816000000000003
1570 31.533000000000001 13.247999999999999
1571 70.683999999999997 17.27
1572 70.498000000000005 73.171999999999997
1573 73.241 76.944000000000003
1574 24.007999999999999 32.619
1575 37.058 19.744
1576 82.138999999999996 66.438999999999993
1577 34.039999999999999 61.100999999999999
1578 75.430000000000007 75.828999999999994
1579 31.637 64.649000000000001
1580 59.576000000000001 75.320999999999998
1581 56.564 16.125
1582 31.355 10.994
1583 28.658000000000001 72.706999999999994
1584 70.492000000000004 33.43
1585 73.126999999999995 88.182000000000002
1586 39.399999999999999 67.436999999999998
1587 29.736000000000001 26.870999999999999
1588 36.155000000000001 43.901000000000003
1589 30.547999999999998 24.172000000000001
1590 74.403000000000006 68.665999999999997
1591 68.025000000000006 16.030999999999999
1592 28.869 30.786999999999999
1593 63.582000000000001 73.015000000000001
1594 53.686 77.581000000000003
1595 92.799999999999997 75.840000000000003
1596 83.131 10.516
1597 22.698 55.100000000000001
1598 79.706000000000003 31.32
1599 22.760999999999999 31.849
1600 64.576999999999998 84.480000000000004
1601 63.701999999999998 83.040000000000006
1602 61.822000000000003 21.998999999999999
1603 7.4109999999999996 73.241
1604 66.042000000000002 70.063999999999993
1605 59.624000000000002 72.010000000000005
1606 26.882999999999999 54.817999999999998
1607 0.20899999999999999 67.319000000000003
1608 33.476999999999997 22.363
1609 53.877000000000002 70.981999999999999
1610 35.612000000000002 39.712000000000003
1611 40.131999999999998 48.783000000000001
1612 56.499000000000002 31.050999999999998
1613 60.372999999999998 38.680999999999997
1614 44.633000000000003 38.165999999999997
1615 70.980000000000004 26.286999999999999
1616 57.323 36.912999999999997
1617 35.609999999999999 42.646000000000001
1618 57.255000000000003 22.140000000000001
1619 27.187999999999999 68.858000000000004
1620 62.960000000000001 56.728000000000002
1621 60.234000000000002 48.948999999999998
1622 78.628 92.941999999999993
1623 62.972999999999999 32.191000000000003
1624 85.727999999999994 75.489999999999995
1625 62.929000000000002 19.106999999999999
1626 30.085000000000001 66.840999999999994
1627 33.972999999999999 34.290999999999997
1628 68.281000000000006 28.501999999999999
1629 4.8049999999999997 61.307000000000002
1630 56.777000000000001 23.087
1631 20.885000000000002 67.361999999999995
1632 68.713999999999999 79.146000000000001
1633 47.262 13.268000000000001
1634 48.258000000000003 96.033000000000001
1635 44.551000000000002 31.567
1636 64.781000000000006 34.776000000000003
1637 24.416 70.162000000000006
1638 71.278999999999996 31.640000000000001
1639 29.785 12.693
1640 33.430999999999997 72.629999999999995
1641 48.310000000000002 44.253999999999998
1642 35.692999999999998 23.59
1643 62.465000000000003 76.861000000000004
1644 29.927 56.292000000000002
1645 15.555999999999999 73.144999999999996
1646 27.963000000000001 28.109000000000002
1647 82.477000000000004 79.840999999999994
1648 62.984000000000002 28.321000000000002
1649 39.639000000000003 7.0209999999999999
1650 29.817 79.706000000000003
1651 37.616999999999997 26.013999999999999
1652 24.579000000000001 26.956
1653 71.370999999999995 16.736000000000001
1654 21.300000000000001 36.811999999999998
1655 13.433999999999999 60.064999999999998
1656 66.757999999999996 33.395000000000003
1657 15.710000000000001 59.896000000000001
1658 26.896999999999998 68.909000000000006
1659 60.344000000000001 24.486000000000001
1660 62.057000000000002 36.152999999999999
1661 18.701000000000001 81.055999999999997
1662 67.445999999999998 74.733999999999995
1663 63.826000000000001 19.555
1664 55.835999999999999 76.787000000000006
1665 32.408999999999999 80.887
1666 66.932000000000002 48.121000000000002
1667 73.236000000000004 79.998999999999995
1668 27.375 22.59
1669 73.859999999999999 67.801000000000002
1670 39.475000000000001 63.941000000000003
1671 58.807000000000002 84.001999999999995
1672 59.259 15.173
1673 62.460999999999999 81.861999999999995
1674 46.938000000000002 11.582000000000001
1675 53.938000000000002 25.423999999999999
1676 78.275999999999996 81.316000000000003
1677 23.024000000000001 73.521000000000001
1678 67.150000000000006 17.850999999999999
1679 63.481000000000002 25.183
1680 24.138000000000002 37.161999999999999
1681 45.453000000000003 28.303000000000001
1682 24.841999999999999 65.022999999999996
1683 19.486000000000001 54.567
1684 76.811999999999998 18.042000000000002
1685 77.843999999999994 84.204999999999998
1686 63.662999999999997 84.978999999999999
1687 65.016999999999996 73.159999999999997
1688 23.113 70.856999999999999
1689 23.233000000000001 26.259
1690 59.130000000000003 22.02
1691 25.792000000000002 62.043999999999997
1692 31.045999999999999 66.840000000000003
1693 64.614000000000004 88.194000000000003
1694 68.539000000000001 82.810000000000002
1695 46.222999999999999 17.245000000000001
1696 32.665999999999997 39.799999999999997
1697 21.251000000000001 32.447000000000003
1698 21.405000000000001 20.481000000000002
1699 71.625 84.049000000000007
1700 57.366999999999997 86.462000000000003
1701 60.927 30.312000000000001
1702 51.253999999999998 79.253
1703 37.289000000000001 25.667999999999999
1704 28.309000000000001 35.692
1705 36.430999999999997 31.657
1706 20.475000000000001 24.956
1707 31.731000000000002 89.117000000000004
1708 33.302 55.476999999999997
1709 73.683999999999997 39.741999999999997
1710 31.606000000000002 23.614000000000001
1711 70.522999999999996 66.707999999999998
1712 67.081999999999994 86.632000000000005
1713 28.939 5.7839999999999998
1714 11.44 21.257000000000001
1715 31.164000000000001 22.814
1716 12.119999999999999 59.856000000000002
1717 61.020000000000003 72.986000000000004
1718 36.466999999999999 30.812999999999999
1719 25.745999999999999 58.478000000000002
1720 12.646000000000001 18.081
1721 42.905000000000001 13.456
1722 20.372 30.016999999999999
1723 69.719999999999999 80.108999999999995
1724 63.375999999999998 22.387
1725 30.736000000000001 16.798999999999999
1726 20.841000000000001 65.259
1727 35.872 22.260000000000002
1728 60.514000000000003 73.691999999999993
1729 17.643000000000001 20.376999999999999
1730 59.908000000000001 34.085000000000001
1731 38.508000000000003 26.163
1732 68.739999999999995 31.140000000000001
1733 94.578000000000003 70.378
1734 67.003 29.936
1735 29.013000000000002 35.250999999999998
1736 31.363 43.941000000000003
1737 65.463999999999999 9.6539999999999999
1738 28.780999999999999 66.847999999999999
1739 61.381999999999998 13.429
1740 60.106000000000002 32.793999999999997
1741 18.033999999999999 59.756
1742 73.394999999999996 79.986999999999995
1743 19.024000000000001 63.383000000000003
1744 55.802999999999997 24.181000000000001
1745 76.75 69.808000000000007
1746 57.332999999999998 78.971999999999994
1747 36.249000000000002 66.412999999999997
1748 24.968 75.632000000000005
1749 23.189 33.164999999999999
1750 26.033000000000001 68.439999999999998
1751 64.817999999999998 26.164999999999999
1752 71.606999999999999 22.754000000000001
1753 3.407 50.950000000000003
1754 70.611999999999995 8.5790000000000006
1755 78.576999999999998 77.323999999999998
1756 61.424999999999997 74.180999999999997
1757 69.090000000000003 30.844000000000001
1758 70.393000000000001 24.492000000000001
1759 61.479999999999997 94.016999999999996
1760 61.045999999999999 25.869
1761 64.412999999999997 27.167000000000002
1762 20.052 9.1880000000000006
1763 22.899000000000001 67.375
1764 70.144999999999996 34.890999999999998
1765 35.872999999999998 22.335999999999999
1766 60.281999999999996 13.436999999999999
1767 72.611000000000004 79.215999999999994
1768 38.984999999999999 29.093
1769 38.713000000000001 22.782
1770 24.995999999999999 62.466000000000001
1771 31.719999999999999 74.335999999999999
1772 5.6070000000000002 67.427999999999997
1773 31.469999999999999 33.049999999999997
1774 24.670999999999999 66.343999999999994
1775 31.440999999999999 80.501000000000005
1776 71.546999999999997 18.809999999999999
1777 69.119 72.557000000000002
1778 61.957000000000001 32.843000000000004
1779 25.495000000000001 22.106999999999999
1780 31.190999999999999 23.791
1781 61.207999999999998 85.864000000000004
1782 62.177999999999997 69.784000000000006
1783 59.258000000000003 81.787000000000006
1784 74.176000000000002 12.172000000000001
1785 35.843000000000004 34.527999999999999
1786 63.468000000000004 81.049999999999997
1787 72.045000000000002 71.701999999999998
1788 56.323999999999998 66.834000000000003
1789 70.376000000000005 80.337999999999994
1790 20.609000000000002 55.673000000000002
1791 10.628 41.155000000000001
1792 72.272000000000006 86.001999999999995
1793 67.882000000000005 83.638000000000005
1794 32.222000000000001 27.556999999999999
1795 56.192 77.072000000000003
1796 76.013000000000005 79.040000000000006
1797 36.820999999999998 24.742000000000001
1798 58.023000000000003 21.940000000000001
1799 25.827000000000002 26.356999999999999
1800 60.302 31.975000000000001
1801 84.594999999999999 71.137
1802 37.512 32.109999999999999
1803 66.572999999999993 81.575000000000003
1804 40.073999999999998 16.135000000000002
1805 36.610999999999997 24.291
1806 47.582999999999998 25.853000000000002
1807 18.344000000000001 61.488
1808 59.456000000000003 92.168000000000006
1809 73.075000000000003 85.420000000000002
1810 21.335000000000001 74.155000000000001
1811 26.754999999999999 30.163
1812 21.614999999999998 62.158999999999999
1813 33.036000000000001 20.209
1814 30.501000000000001 34.011000000000003
1815 32.259 33.244
1816 19.620999999999999 62.517000000000003
1817 33.079999999999998 34.670999999999999
1818 62.570999999999998 30.602
1819 67.879000000000005 77.986999999999995
1820 72.626000000000005 45.649999999999999
1821 31.890000000000001 30.619
1822 57.567 27.344000000000001
1823 79.796999999999997 68.168999999999997
1824 51.295000000000002 23.099
1825 32.218000000000004 27.558
1826 67.340999999999994 70.924999999999997
1827 21.413 40.887999999999998
1828 69.269999999999996 22.623999999999999
1829 68.582999999999998 87.506
1830 73.751000000000005 81.635000000000005
1831 41.131 27.175000000000001
1832 74.953999999999994 82.305999999999997
1833 33.844999999999999 21.989000000000001
1834 62.703000000000003 69.828999999999994
1835 62.710000000000001 37.293999999999997
1836 56.372 36.273000000000003
1837 65.272999999999996 24.190999999999999
1838 31.532 75.158000000000001
1839 69.555000000000007 84.185000000000002
1840 73.606999999999999 30.606000000000002
1841 12.01 65.198999999999998
1842 23.193000000000001 64.786000000000001
1843 73.944999999999993 21.762
1844 63.692999999999998 75.010000000000005
1845 27.908000000000001 24.521999999999998
1846 14.67 15.605
1847 34.837000000000003 26.584
1848 14.695 35.496000000000002
1849 68.953999999999994 28.148
1850 25.309999999999999 56.564
1851 71.594999999999999 16.568000000000001
1852 32.731000000000002 21.989000000000001
1853 69.656000000000006 69.563999999999993
1854 6.423 53.966999999999999
1855 29.050000000000001 74.777000000000001
1856 60.734999999999999 23.443000000000001
1857 27.192 33.25
1858 64.712999999999994 71.810000000000002
1859 17.538 65.721000000000004
1860 14.903 78.216999999999999
1861 66.253 32.326000000000001
1862 55.289999999999999 27.251000000000001
1863 26.303999999999998 69.744
1864 14.413 83.049999999999997
1865 52.305 23.588000000000001
1866 78.545000000000002 77.421999999999997
1867 61.895000000000003 67.715999999999994
1868 25.538 64.474000000000004
1869 66.183999999999997 63.536999999999999
1870 76.623000000000005 74.456999999999994
1871 70.108000000000004 86.728999999999999
1872 71.546000000000006 78.670000000000002
1873 57.454999999999998 24.503
1874 16.149000000000001 57.723999999999997
1875 18.393999999999998 75.010999999999996
1876 27.757000000000001 24.821999999999999
1877 31.474 52.182000000000002
1878 61.079000000000001 26.785
1879 70.680999999999997 28.283000000000001
1880 48.561999999999998 24.635999999999999
1881 73.341999999999999 82.140000000000001
1882 58.006999999999998 71.930999999999997
1883 64.673000000000002 25.416
1884 41.680999999999997 41.183999999999997
1885 63.481000000000002 31.765999999999998
1886 67.75 29.806999999999999
1887 39.381999999999998 16.678000000000001
1888 45.828000000000003 68.811999999999998
1889 12.638 81.504999999999995
1890 62.396000000000001 68.040000000000006
1891 39.558 28.454999999999998
1892 29.898 25.733000000000001
1893 29.954000000000001 71.759
1894 23.082999999999998 20.736999999999998
1895 40.665999999999997 28.143000000000001
1896 29.782 53.732999999999997
1897 62.369 87.677000000000007
1898 76.537999999999997 68.182000000000002
1899 62.999000000000002 93.069999999999993
1900 70.162000000000006 29.538
1901 28.111000000000001 56.906999999999996
1902 49.331000000000003 47.762999999999998
1903 33.136000000000003 19.169
1904 53.987000000000002 21.082999999999998
1905 63.454000000000001 86.834000000000003
1906 15.512 69.688999999999993
1907 25.620999999999999 32.399000000000001
1908 66.197000000000003 73.144999999999996
1909 76.004000000000005 75.277000000000001
1910 71.453999999999994 82.140000000000001
1911 77.620999999999995 75.469999999999999
1912 40.060000000000002 19.132999999999999
1913 35.433 70.956000000000003
1914 59.825000000000003 87.415999999999997
1915 65.372 74.597999999999999
1916 66.921000000000006 19.513999999999999
1917 55.021000000000001 37.063000000000002
1918 61.347000000000001 17.981000000000002
1919 53.814999999999998 29.324999999999999
1920 59.741 16.829000000000001
1921 69.168999999999997 36.442999999999998
1922 65.375 66.626999999999995
1923 25.754000000000001 22.103999999999999
1924 36.656999999999996 69.435000000000002
1925 32.012 62.735999999999997
1926 41.392000000000003 12.782
1927 71.656000000000006 18.042999999999999
1928 60.661999999999999 22.395
1929 38.764000000000003 45.241
1930 55.006 28.146000000000001
1931 67.423000000000002 82.534999999999997
1932 69.385000000000005 77.424999999999997
1933 21.629999999999999 22.66
1934 63.564999999999998 20.137
1935 83.260000000000005 27.279
1936 24.347000000000001 65.131
1937 23.579999999999998 23.062999999999999
1938 4.8319999999999999 79.058999999999997
1939 66.337999999999994 28.097000000000001
1940 72.033000000000001 21.515999999999998
1941 61.737000000000002 27.579000000000001
1942 63.052 79.581999999999994
1943 51.828000000000003 31.846
1944 72.034000000000006 24.084
1945 53.274000000000001 80.932000000000002
1946 65.358000000000004 73.471999999999994
1947 54.816000000000003 23.629999999999999
1948 31.640999999999998 54.697000000000003
1949 39.889000000000003 30.751000000000001
1950 67.662999999999997 93.697000000000003
1951 63.697000000000003 79.590000000000003
1952 58.152000000000001 26.414000000000001
1953 13.335000000000001 63.503
1954 24.196999999999999 57.158999999999999
1955 68.147999999999996 82.284999999999997
1956 63.877000000000002 30.573
1957 71.055000000000007 23.103999999999999
1958 21.870000000000001 73.396000000000001
1959 63.228000000000002 67.385000000000005
1960 17.827999999999999 69.790000000000006
1961 64.603999999999999 92.176000000000002
1962 55.093000000000004 22.335999999999999
1963 28.437000000000001 64.897000000000006
1964 64.135999999999996 23.158999999999999
1965 65.617000000000004 28.776
1966 32.317 69.021000000000001
1967 57.698999999999998 13.297000000000001
1968 65.563000000000002 19.087
1969 33.951000000000001 23.536000000000001
1970 29.957000000000001 16.655000000000001
1971 34.253 33.457999999999998
1972 12.425000000000001 64.879999999999995
1973 29.597000000000001 44.162999999999997
1974 60.322000000000003 16.274999999999999
1975 71.619 79.453999999999994
1976 13.098000000000001 76.310000000000002
1977 65.730000000000004 19.206
1978 76.522000000000006 80.856999999999999
1979 24.940000000000001 28.488
1980 69.256 68.998000000000005
1981 66.275999999999996 44.619999999999997
1982 38.475000000000001 26.286000000000001
1983 70.853999999999999 79.448999999999998
1984 30.440999999999999 32.109999999999999
1985 24.890999999999998 27.879999999999999
1986 64.856999999999999 17.071000000000002
1987 52.713999999999999 11.710000000000001
1988 20.731999999999999 63.393999999999998
1989 35.692 58.377000000000002
1990 73.438999999999993 81.909000000000006
1991 31.341999999999999 66.477000000000004
1992 23.98 69.638999999999996
1993 32.871000000000002 30.683
1994 28.376000000000001 30.353000000000002
1995 26.806999999999999 22.059999999999999
1996 74.575000000000003 72.292000000000002
1997 18.309000000000001 60.481999999999999
1998 16.597999999999999 64.129000000000005
1999 53.122999999999998 44.951000000000001
2000 75.766000000000005 75.227999999999994
2001 34.781999999999996 69.331999999999994
2002 37.405999999999999 20.838999999999999
2003 60.133000000000003 31.062999999999999
2004 73.933000000000007 73.456999999999994
2005 23.079000000000001 57.170999999999999
2006 16.59 59.151000000000003
2007 31.888999999999999 16.984000000000002
2008 58.932000000000002 72.326999999999998
2009 22.097999999999999 84.813999999999993
2010 31.338999999999999 70.920000000000002
2011 22.469999999999999 72.417000000000002
2012 49.137 72.435000000000002
2013 34.241999999999997 65.491
2014 72.031999999999996 24.712
2015 31.759 24.744
2016 23.123999999999999 30.829999999999998
2017 22.129000000000001 65.787999999999997
2018 30.227 71.076999999999998
2019 62.326000000000001 75.872
2020 31.469000000000001 37.963999999999999
2021 42.131999999999998 32.305999999999997
2022 62.561 30.056000000000001
2023 75.605000000000004 74.778000000000006
2024 24.934999999999999 83.420000000000002
2025 59.213999999999999 87.667000000000002
2026 22.129999999999999 54.789000000000001
2027 60.734000000000002 91.325000000000003
2028 45.152999999999999 23.315000000000001
2029 78.450000000000003 76.304000000000002
2030 28.233000000000001 60.417999999999999
2031 59.710999999999999 84.313000000000002
2032 67.299999999999997 31.059999999999999
2033 28.768999999999998 83.540999999999997
2034 61.908000000000001 83.950000000000003
2035 16.111999999999998 75.518000000000001
2036 43.496000000000002 44.097999999999999
2037 70.887 16.858000000000001
2038 31.251000000000001 20.053999999999998
2039 33.274000000000001 77.590999999999994
2040 28.638000000000002 62.485999999999997
2041 16.863 53.034999999999997
2042 74.462999999999994 14.382999999999999
2043 15.599 79.329999999999998
2044 60.674999999999997 30.248999999999999
2045 65.828999999999994 32.468000000000004
2046 32.468000000000004 20.483000000000001
2047 71.061000000000007 32.439
2048 32.131 24.018999999999998
2049 74.444000000000003 85.613
2050 68.248999999999995 29.071000000000002
2051 41.283999999999999 35.018999999999998
2052 75.641999999999996 81.346999999999994
2053 54.588000000000001 86.140000000000001
2054 67.664000000000001 78.567999999999998
2055 2.6120000000000001 56.875
2056 70.731999999999999 72.096999999999994
2057 59.912999999999997 24.227
2058 72.977000000000004 70.224000000000004
2059 71.129999999999995 85.870999999999995
2060 33.137 24.018000000000001
2061 32.078000000000003 27.379000000000001
2062 6.6139999999999999 62.488
2063 12.952999999999999 61.091999999999999
2064 69.399000000000001 40.884999999999998
2065 61.359999999999999 66.424999999999997
2066 73.608999999999995 78.418999999999997
2067 14.247 66.775999999999996
2068 60.143999999999998 24.809000000000001
2069 18.306000000000001 70.052999999999997
2070 32.999000000000002 64.042000000000002
2071 63.628 72.579999999999998
2072 28.625 67.519000000000005
2073 34.194000000000003 25.841000000000001
2074 69.789000000000001 26.405999999999999
2075 11.000999999999999 53.646000000000001
2076 67.114999999999995 29.882999999999999
2077 61.116 31.021999999999998
2078 32.859999999999999 38.991999999999997
2079 64.503 23.803000000000001
2080 84.748000000000005 81.989000000000004
2081 74.820999999999998 16.844999999999999
2082 63.939 31.244
2083 23.469999999999999 65.972999999999999
2084 76.004000000000005 76.697000000000003
2085 64.649000000000001 34.634
2086 27.114999999999998 67.926000000000002
2087 65.521000000000001 38.185000000000002
2088 49.076000000000001 23.821000000000002
2089 17.231000000000002 54.390999999999998
2090 77.489000000000004 79.388000000000005
2091 63.579999999999998 71.343999999999994
2092 17.757999999999999 63.017000000000003
2093 64.730000000000004 26.568000000000001
2094 61.890999999999998 78.793000000000006
2095 18.463999999999999 24.192
2096 71.135000000000005 80.587000000000003
2097 65.873000000000005 6.7389999999999999
2098 53.472999999999999 14.949
2099 55.674999999999997 81.227000000000004
2100 68.625 28.437999999999999
2101 27.263000000000002 62.962000000000003
2102 73.378 21.393000000000001
2103 53.945999999999998 20.207000000000001
2104 30.942 37.740000000000002
2105 35.616999999999997 41.069000000000003
2106 72.144999999999996 73.890000000000001
2107 72.753 70.299000000000007
2108 29.574999999999999 65.352999999999994
2109 36.061 16.219999999999999
2110 69.298000000000002 83.944999999999993
2111 21.855 29.792000000000002
2112 31.318999999999999 69.477999999999994
2113 82.316999999999993 17.067
2114 34.603999999999999 30.951000000000001
2115 64.057000000000002 87.941999999999993
2116 64.426000000000002 31.437000000000001
2117 38.466999999999999 22.878
2118 28.933 60.662999999999997
2119 65.161000000000001 98.012
2120 66.712999999999994 65.046999999999997
2121 31.074000000000002 34.844999999999999
2122 30.658000000000001 23.478000000000002
2123 64.617000000000004 66.376999999999995
2124 36.753 34.744
2125 30.751000000000001 31.324000000000002
2126 33.112000000000002 65.150999999999996
2127 60.110999999999997 69.659000000000006
2128 25.440999999999999 55.235999999999997
2129 40.796999999999997 39.515999999999998
2130 64.207999999999998 19.338000000000001
2131 41.460999999999999 12.859999999999999
2132 33.402999999999999 19.193999999999999
2133 38.064 69.983000000000004
2134 77.492000000000004 78.085999999999999
2135 69.271000000000001 25.992999999999999
2136 38.027000000000001 18.963999999999999
2137 62.673999999999999 30.640999999999998
2138 39.088000000000001 18.545999999999999
2139 75.019000000000005 36.963999999999999
2140 26.370000000000001 23.106000000000002
2141 57.991 10.32
2142 34.191000000000003 24.802
2143 71.311999999999998 30.850000000000001
2144 72.736000000000004 82.823999999999998
2145 75.266000000000005 70.861000000000004
2146 23.231999999999999 18.817
2147 42.908000000000001 34.677999999999997
2148 56.732999999999997 25.672999999999998
2149 67.066999999999993 78.929000000000002
2150 33.084000000000003 50.646000000000001
2151 22.553000000000001 60.116
2152 68.543999999999997 44.030999999999999
2153 57.844999999999999 75.340000000000003
2154 63.884 6.8700000000000001
2155 66.930000000000007 29.004000000000001
2156 65.438999999999993 76.170000000000002
2157 61.548999999999999 31.768999999999998
2158 19.542000000000002 64.241
2159 78.209999999999994 72.555000000000007
2160 64.147000000000006 21.489999999999998
2161 34.003 18.823
2162 88.656999999999996 34.698999999999998
2163 86.155000000000001 85.459000000000003
2164 64.540999999999997 22.422999999999998
2165 30.048999999999999 28.545000000000002
2166 32.377000000000002 16.709
2167 61.548999999999999 79.459999999999994
2168 33.796999999999997 71.171999999999997
2169 31.579000000000001 26.609000000000002
2170 12.853999999999999 22.937000000000001
2171 31.617999999999999 21.285
2172 68.313000000000002 21.035
2173 14.843999999999999 70.876999999999995
2174 21.853000000000002 60.137999999999998
2175 54.280999999999999 30.545999999999999
2176 65.060000000000002 23.573
2177 27.401 57.091999999999999
2178 18.468 68.254999999999995
2179 66.293000000000006 66.203999999999994
2180 74.941999999999993 60.472000000000001
2181 70.991 34.787999999999997
2182 66.177999999999997 24.109999999999999
2183 31.844000000000001 66.028999999999996
2184 42.402999999999999 26.923999999999999
2185 62.326999999999998 42.366999999999997
2186 55.965000000000003 13.532999999999999
2187 60.573999999999998 14.550000000000001
2188 63.201000000000001 93.730999999999995
2189 77.373999999999995 32.970999999999997
2190 25.963999999999999 66.233999999999995
2191 29.466999999999999 38.182000000000002
2192 20.157 16.834
2193 68.209999999999994 63.820999999999998
2194 11.939 74.899000000000001
2195 72.180000000000007 75.173000000000002
2196 73.823999999999998 24.228000000000002
2197 51.561999999999998 23.855
2198 40.326000000000001 24.309999999999999
2199 66.528000000000006 32.738999999999997
2200 71.450000000000003 64.379999999999995
2201 24.728000000000002 46.689
2202 31.809000000000001 59.462000000000003
2203 65.948999999999998 32.457000000000001
2204 64.063999999999993 81.727000000000004
2205 74.852000000000004 78.926000000000002
2206 26.728000000000002 17.832999999999998
2207 40.290999999999997 28.146000000000001
2208 80.525000000000006 25.817
2209 69.831999999999994 23.568000000000001
2210 20.349 79.584000000000003
2211 45.322000000000003 27.734000000000002
2212 69.031999999999996 30.341000000000001
2213 64.143000000000001 28.184999999999999
2214 67.921000000000006 13.59
2215 63.905000000000001 44.232999999999997
2216 61.975000000000001 28.841999999999999
2217 29.835999999999999 73.939999999999998
2218 68.594999999999999 81.209000000000003
2219 70.778999999999996 31.933
2220 42.411999999999999 27.789999999999999
2221 24.945 78.084999999999994
2222 70.126000000000005 83.486999999999995
2223 71.736000000000004 23.149000000000001
2224 34.695 32.515000000000001
2225 27.088000000000001 74.382000000000005
2226 23.376999999999999 32.631999999999998
2227 77.747 73.308000000000007
2228 77 63.235999999999997
2229 58.512999999999998 24.692
2230 28.745999999999999 30.734000000000002
2231 57.725000000000001 25.055
2232 63.929000000000002 39.406999999999996
2233 83.768000000000001 24.286999999999999
2234 33.384 22.623999999999999
2235 68.494 31.616
2236 72.433999999999997 67.332999999999998
2237 65.474999999999994 77.379999999999995
2238 78.983000000000004 78.519000000000005
2239 22.931000000000001 72.358999999999995
2240 58.990000000000002 29.263999999999999
2241 59.935000000000002 22.030999999999999
2242 26.065999999999999 11.151
2243 67.266999999999996 77.266999999999996
2244 67.007000000000005 27.859000000000002
2245 18.469000000000001 72.034000000000006
2246 26.707000000000001 70.777000000000001
2247 26.658999999999999 14.834
2248 28.564 30.300999999999998
2249 26.079999999999998 22.48
2250 36.802 17.940000000000001
2251 28.440999999999999 28.969999999999999
2252 72.674000000000007 22.605
2253 72.971000000000004 19.469000000000001
2254 39.274000000000001 26.003
2255 24.677 22.718
2256 7.3600000000000003 72.474999999999994
2257 20.655999999999999 68.266000000000005
2258 69.900000000000006 30.001999999999999
2259 29.518000000000001 23.048999999999999
2260 63.542999999999999 31.917000000000002
2261 37.350999999999999 61.241999999999997
2262 10.778 28.870000000000001
2263 65.233000000000004 23.032
2264 73.647000000000006 9.9269999999999996
2265 7.1719999999999997 21.373999999999999
2266 32.082999999999998 39.005000000000003
2267 76.971000000000004 65.938999999999993
2268 66.090000000000003 25.966999999999999
2269 57.292000000000002 23.495000000000001
2270 18.911999999999999 20.291
2271 30.013999999999999 56.436999999999998
2272 8.3290000000000006 70.165999999999997
2273 63.747999999999998 68.216999999999999
2274 28.847000000000001 22.969000000000001
2275 59.927 23.518000000000001
2276 55.512999999999998 18.707999999999998
2277 53.593000000000004 76.754000000000005
2278 62.997 70.668000000000006
2279 55.904000000000003 13.56
2280 68.549999999999997 34.359999999999999
2281 65.066000000000003 77.006
2282 33.268000000000001 72.247
2283 28.23 22.629999999999999
2284 53.558999999999997 22.962
2285 29.706 34.206000000000003
2286 21.169 69.054000000000002
2287 26.227 23.262
2288 35.338000000000001 67.872
2289 26.498000000000001 60.082999999999998
2290 70.094999999999999 21.521000000000001
2291 60.804000000000002 21.231000000000002
2292 30.248999999999999 34.323999999999998
2293 28.344000000000001 58.93
2294 37.337000000000003 55.145000000000003
2295 32.119 42.274000000000001
2296 64.397000000000006 21.323
2297 35.180999999999997 56.149000000000001
2298 79.251999999999995 25.481999999999999
2299 26.338999999999999 68.231999999999999
2300 65.257999999999996 82.034000000000006
2301 44.462000000000003 39.683
2302 23.872 28.837
2303 64.344999999999999 86.808000000000007
2304 80.878 77.537000000000006
2305 19.632000000000001 58.060000000000002
2306 24.571999999999999 62.469000000000001
2307 58.237000000000002 14.654
2308 71.337000000000003 80.052000000000007
2309 75.177999999999997 30.068999999999999
2310 44.957000000000001 27.091999999999999
2311 37.277000000000001 17.995000000000001
2312 77.802000000000007 34.994999999999997
2313 79.335999999999999 72.531999999999996
2314 36.581000000000003 32.189999999999998
2315 84.757000000000005 83.968000000000004
2316 62.917999999999999 75.216999999999999
2317 29.574999999999999 59.798000000000002
2318 64.617999999999995 76.754000000000005
2319 45.311 25.931999999999999
2320 62.735999999999997 71.052000000000007
2321 61.305999999999997 90.423000000000002
2322 16.204999999999998 61.207999999999998
2323 33.363999999999997 30.946999999999999
2324 20.148 73.409000000000006
2325 21.164999999999999 63.027000000000001
2326 66.105000000000004 87.090000000000003
2327 37.738999999999997 28.815999999999999
2328 52.738999999999997 73.203000000000003
2329 49.976999999999997 33.103999999999999
2330 68.855000000000004 79.242999999999995
2331 41.154000000000003 16.491
2332 45.237000000000002 18.302
2333 57.450000000000003 67.116
2334 25.503 62.933999999999997
2335 70.063000000000002 18.614999999999998
2336 59.018999999999998 25.398
2337 55.188000000000002 86.287000000000006
2338 62.283999999999999 20.861999999999998
2339 57.996000000000002 75.766999999999996
2340 14.244 59.287999999999997
2341 62.798000000000002 69.522999999999996
2342 52.832999999999998 85
2343 49.929000000000002 26.867000000000001
2344 58.640999999999998 19.152999999999999
2345 28.324000000000002 17.945
2346 12.651 59.478999999999999
2347 14.699 64.685000000000002
2348 14.220000000000001 62.881
2349 51.673000000000002 17.760000000000002
2350 56.668999999999997 31.244
2351 61.259999999999998 22.222999999999999
2352 53.322000000000003 84.382000000000005
2353 16.350999999999999 67.042000000000002
2354 75.941999999999993 71.930999999999997
2355 19.140999999999998 23.718
2356 58.945 69.602999999999994
2357 30.251999999999999 24.989999999999998
2358 53.027000000000001 74.606999999999999
2359 61.106000000000002 27.262
2360 68.596999999999994 83.022000000000006
2361 37.511000000000003 72.081999999999994
2362 29.997 41.698
2363 72.522999999999996 92.572999999999993
2364 35.024999999999999 20.498000000000001
2365 26.898 69.447000000000003
2366 67.664000000000001 78.793999999999997
2367 21.044 74.387
2368 60.357999999999997 31.544
2369 73.191000000000003 82.941999999999993
2370 15.153 55.210000000000001
2371 71.153999999999996 21.693000000000001
2372 50.116999999999997 23.137
2373 63.991999999999997 34.884999999999998
2374 28.341999999999999 37.045999999999999
2375 65.430000000000007 12.162000000000001
2376 55.149999999999999 77.909000000000006
2377 34.506 29.727
2378 66.852999999999994 87.334999999999994
2379 22.731999999999999 50.686
2380 65.481999999999999 81.120000000000005
2381 69.659000000000006 25.465
2382 31.475999999999999 73.787000000000006
2383 28.667999999999999 64.140000000000001
2384 67.063000000000002 19.550999999999998
2385 18.571000000000002 34.674999999999997
2386 69.076999999999998 70.418999999999997
2387 54.378999999999998 21.782
2388 48.807000000000002 73.903000000000006
2389 62.893999999999998 20.295999999999999
2390 74.174999999999997 39.628999999999998
2391 33.878 13.997999999999999
2392 67.075999999999993 82.834000000000003
2393 65.367000000000004 34.545999999999999
2394 23.068999999999999 70.667000000000002
2395 28.742999999999999 26.244
2396 60.317999999999998 34.783000000000001
2397 69.787999999999997 29.187000000000001
2398 56.182000000000002 91.156000000000006
2399 63.024000000000001 19.975999999999999
2400 58.637 16.353000000000002
2401 22.391999999999999 56.058
2402 50.273000000000003 87.308999999999997
2403 15.819000000000001 67.606999999999999
2404 73.656999999999996 29.762
2405 21.945 28.882000000000001
2406 67.694999999999993 74.498999999999995
2407 17.260999999999999 58.521999999999998
2408 21.774999999999999 57.302999999999997
2409 26.463999999999999 68.780000000000001
2410 71.394999999999996 82.867999999999995
2411 72.329999999999998 17.132999999999999
2412 76.412999999999997 83.358000000000004
2413 30.187000000000001 18.849
2414 65.185000000000002 78.057000000000002
2415 36.665999999999997 18.257999999999999
2416 24.957000000000001 18.001000000000001
2417 23.399000000000001 51.198
2418 18.122 27.323
2419 64.055999999999997 26.742000000000001
2420 14.5 76.823999999999998
2421 42.481000000000002 31.675000000000001
2422 30.079000000000001 23.039000000000001
2423 24.841999999999999 62.231000000000002
2424 63.128999999999998 19.263000000000002
2425 25.466999999999999 29.07
2426 6.9109999999999996 67.566000000000003
2427 12.127000000000001 68.817999999999998
2428 33.723999999999997 53.652000000000001
2429 47.606000000000002 34.015999999999998
2430 45.590000000000003 31.603000000000002
2431 29.559000000000001 27.850999999999999
2432 57.999000000000002 86.209000000000003
2433 61.472999999999999 79.081000000000003
2434 65.480999999999995 25.768999999999998
2435 79.780000000000001 73.858000000000004
2436 35.298000000000002 26.895
2437 72.878 24.094999999999999
2438 39.889000000000003 60.503
2439 23.535 54.481999999999999
2440 74.397000000000006 12.731
2441 30.111000000000001 26.853999999999999
2442 77.786000000000001 38.777000000000001
2443 75.638999999999996 79.820999999999998
2444 63.040999999999997 86.138000000000005
2445 26.295999999999999 78.902000000000001
2446 73.474999999999994 31.088000000000001
2447 75.001999999999995 88.765000000000001
2448 58.509999999999998 89.605000000000004
2449 64.793999999999997 6.9009999999999998
2450 66.254999999999995 22.428000000000001
2451 74.031000000000006 37.264000000000003
2452 53.375 79.603999999999999
2453 65.784000000000006 24.491
2454 55.439999999999998 8.6769999999999996
2455 56.582999999999998 83.603999999999999
2456 21.326000000000001 20.044
2457 63.680999999999997 87.659999999999997
2458 31.789999999999999 18.215
2459 48.045999999999999 15.010999999999999
2460 8.7729999999999997 57.581000000000003
2461 29.273 35.075000000000003
2462 74.855000000000004 78.054000000000002
2463 80.305999999999997 71.680000000000007
2464 26.132000000000001 32.033999999999999
2465 64.962000000000003 64.587000000000003
2466 18.632999999999999 59.576000000000001
2467 20.474 65.448999999999998
2468 72.025999999999996 24.965
2469 16.077999999999999 79.140000000000001
2470 70.046000000000006 17.053999999999998
2471 60.454000000000001 78.593000000000004
2472 54.212000000000003 68.116
2473 70.709000000000003 63.139000000000003
2474 30.161000000000001 28.443000000000001
2475 58.310000000000002 32.484000000000002
2476 60.517000000000003 18.414999999999999
2477 68.441000000000003 81.576999999999998
2478 24.196000000000002 46.408999999999999
2479 8.4830000000000005 55.652999999999999
2480 63.350999999999999 18.856000000000002
2481 31.629000000000001 30.105
2482 24.609000000000002 64.861000000000004
2483 28.780999999999999 25.036000000000001
2484 20.129999999999999 68.265000000000001
2485 23.058 73.620999999999995
2486 32.823999999999998 78.102999999999994
2487 65.155000000000001 20.451000000000001
2488 27.114000000000001 72.858000000000004
2489 79.575999999999993 34.326999999999998
2490 61.042000000000002 29.138000000000002
2491 63.012 71.653999999999996
2492 66.072000000000003 82.331999999999994
2493 67.266000000000005 64.543999999999997
2494 31.661000000000001 69.912000000000006
2495 68.346000000000004 31.785
2496 63.462000000000003 32.744999999999997
2497 58.938000000000002 68.984999999999999
2498 73.114999999999995 89.138000000000005
2499 26.166 51.036999999999999
2500 68.789000000000001 31.123000000000001
2501 30.032 67.391000000000005
2502 39.521000000000001 18.498999999999999
2503 32.026000000000003 29.846
2504 43.359999999999999 27.268000000000001
2505 69.864999999999995 68.599999999999994
2506 58.423000000000002 9.9649999999999999
2507 32.064999999999998 59.432000000000002
2508 61.642000000000003 75.048000000000002
2509 6.641 62.427999999999997
2510 58.414999999999999 74.346000000000004
2511 78.870999999999995 18.43
2512 64.578999999999994 64.525999999999996
2513 29.393999999999998 27.125
2514 65.305999999999997 29.559000000000001
2515 28.122 25.992000000000001
2516 29.231000000000002 74.319999999999993
2517 56.463000000000001 13.539999999999999
2518 10.041 21.327000000000002
2519 34.796999999999997 77.245999999999995
2520 66.444000000000003 23.478000000000002
2521 68.057000000000002 69.373000000000005
2522 22.518999999999998 63.789000000000001
2523 38.110999999999997 33.475000000000001
2524 27.824000000000002 66.153999999999996
2525 64.078999999999994 83.375
2526 71.588999999999999 81.212999999999994
2527 25.710000000000001 68.769999999999996
2528 22.434000000000001 60.847999999999999
2529 62.460000000000001 27.907
2530 51.200000000000003 21.361999999999998
2531 86.411000000000001 71.745999999999995
2532 68.370000000000005 79.278000000000006
2533 22.225000000000001 57.246000000000002
2534 83.814999999999998 93.597999999999999
2535 5.883 23.167000000000002
2536 66.715999999999994 38.152000000000001
2537 24.379000000000001 58.304000000000002
2538 38.268999999999998 40.125999999999998
2539 27.800999999999998 66.891000000000005
2540 28.898 63.414000000000001
2541 46.805999999999997 22.041
2542 78.549000000000007 23.233000000000001
2543 21.317 27.228999999999999
2544 29.588000000000001 72.709000000000003
2545 29.881 26.036000000000001
2546 69.659999999999997 22.431999999999999
2547 70.102000000000004 69.774000000000001
2548 34.979999999999997 34.396000000000001
2549 70.453000000000003 68.439999999999998
2550 34.259999999999998 33.119999999999997
2551 25.899000000000001 56.146999999999998
2552 11.004 49.476999999999997
2553 21.797999999999998 76.373000000000005
2554 26.515000000000001 29.524999999999999
2555 69.927999999999997 88.504000000000005
2556 70.040000000000006 61.253
2557 36.113 36.792999999999999
2558 18.721 40.052
2559 12.087999999999999 62.823
2560 21.762 63.369
2561 19.481000000000002 75.001999999999995
2562 28.449999999999999 56.469999999999999
2563 55.347000000000001 82.579999999999998
2564 35.261000000000003 30.948
2565 59.814 84.075999999999993
2566 71.858000000000004 15.606
2567 33.393999999999998 35.634999999999998
2568 17.157 32.021000000000001
2569 74.286000000000001 18.800999999999998
2570 12.659000000000001 72.206999999999994
2571 61.344000000000001 70.340999999999994
2572 72.905000000000001 24.155999999999999
2573 70.143000000000001 62.548000000000002
2574 68.870999999999995 80.772999999999996
2575 59.481000000000002 34.463000000000001
2576 66.147000000000006 79.957999999999998
2577 62.543999999999997 24.164999999999999
2578 65.272999999999996 88.560000000000002
2579 15.994 76.256
2580 21.530999999999999 33.447000000000003
2581 24.218 63.182000000000002
2582 76.347999999999999 38.456000000000003
2583 78.507000000000005 80.956999999999994
2584 62.317999999999998 99.111000000000004
2585 57.012 82.748000000000005
2586 56.219999999999999 74.266999999999996
2587 30.193000000000001 68.311000000000007
2588 73.016999999999996 14.532999999999999
2589 76.918999999999997 23.213999999999999
2590 30.797000000000001 26.463999999999999
2591 73.566000000000003 37.591000000000001
2592 71.909999999999997 99.242000000000004
2593 64.015000000000001 37.548999999999999
2594 31.113 23.393999999999998
2595 68.281000000000006 92.106999999999999
2596 30.204000000000001 60.707999999999998
2597 11.292999999999999 75.213999999999999
2598 61.811999999999998 85.063000000000002
2599 77.897000000000006 29.079000000000001
2600 23.617999999999999 71.305000000000007
2601 57.334000000000003 19.978999999999999
2602 66.244 82.430000000000007
2603 40.134 19.260999999999999
2604 63.762999999999998 26.617000000000001
2605 61.784999999999997 79.581000000000003
2606 21.542999999999999 62.529000000000003
2607 63.951999999999998 24.638999999999999
2608 13.960000000000001 83.763999999999996
2609 22.314 64.439999999999998
2610 64.120000000000005 17.300999999999998
2611 74.927999999999997 86.590999999999994
2612 25.43 26.545000000000002
2613 80.409999999999997 68.581999999999994
2614 68.030000000000001 25.545000000000002
2615 27.686 32.932000000000002
2616 66.143000000000001 20.577000000000002
2617 15.441000000000001 56.982999999999997
2618 58.767000000000003 66.528999999999996
2619 56.258000000000003 32.515999999999998
2620 61.097000000000001 15.679
2621 62.844999999999999 77.138000000000005
2622 26.48 30.885000000000002
2623 29.731999999999999 67.715999999999994
2624 58.619 80.444999999999993
2625 74.704999999999998 90.917000000000002
2626 58.130000000000003 89.322999999999993
2627 62.061 82.034000000000006
2628 26.623000000000001 18.614000000000001
2629 28.536000000000001 77.566999999999993
2630 82.159000000000006 69.793999999999997
2631 76.031999999999996 33
2632 77.397999999999996 77.233000000000004
2633 20.268999999999998 60.792000000000002
2634 6.1390000000000002 66.662000000000006
2635 34.488999999999997 68.325999999999993
2636 68.921999999999997 40.735999999999997
2637 26.204999999999998 71.275999999999996
2638 31.797999999999998 34.999000000000002
2639 86.597999999999999 86.492999999999995
2640 70.453999999999994 64.218999999999994
2641 33.642000000000003 21.698
2642 63.908000000000001 75.587999999999994
2643 78.799000000000007 74.855000000000004
2644 67.525999999999996 68.081999999999994
2645 67.707999999999998 12.225
2646 70.754999999999995 92.617999999999995
2647 63.500999999999998 30.792999999999999
2648 27.460999999999999 65.715999999999994
2649 62.563000000000002 16.475999999999999
2650 80.679000000000002 28.062999999999999
2651 17.652000000000001 70.849000000000004
2652 25.056999999999999 55.290999999999997
2653 61.901000000000003 73.397999999999996
2654 61.084000000000003 33.652999999999999
2655 29.567 25.919
2656 55.600000000000001 87.453000000000003
2657 63.049999999999997 25.388000000000002
2658 30.484999999999999 68.352000000000004
2659 75.430000000000007 82.224000000000004
2660 24.992999999999999 68.625
2661 34.804000000000002 29.986999999999998
2662 63.784999999999997 26.709
2663 33.889000000000003 69.197000000000003
2664 53.029000000000003 23.323
2665 15.18 72.998999999999995
2666 31.683 60.756999999999998
2667 76.819000000000003 30.350000000000001
2668 34.429000000000002 64.180999999999997
2669 62.777999999999999 46.366
2670 29.539999999999999 63.604999999999997
2671 8.9350000000000005 56.201000000000001
2672 21.414000000000001 64.361000000000004
2673 19.361999999999998 26.798999999999999
2674 24.535 61.957000000000001
2675 71.694000000000003 77.950999999999993
2676 57.677999999999997 23.439
2677 12.132999999999999 65.489999999999995
2678 19.678000000000001 23.722000000000001
2679 38.451999999999998 12.797000000000001
2680 67.695999999999998 27.006
2681 12.952999999999999 70.222999999999999
2682 54.182000000000002 23.751999999999999
2683 76.896000000000001 16.698
2684 56.540999999999997 35.151000000000003
2685 26.108000000000001 56.386000000000003
2686 26.477 64.781000000000006
2687 44.709000000000003 26.834
2688 55.432000000000002 24.561
2689 61.180999999999997 69.25
2690 75.477999999999994 31.326000000000001
2691 74.257999999999996 76.298000000000002
2692 38.988 9.7110000000000003
2693 66.519000000000005 33.209000000000003
2694 23.934999999999999 74.884
2695 23.393999999999998 50.284999999999997
2696 26.032 61.447000000000003
2697 25.370999999999999 26.109999999999999
2698 77.864999999999995 71.138999999999996
2699 27.786000000000001 35.109999999999999
2700 11.946 53.905999999999999
2701 30.658000000000001 11.377000000000001
2702 69.659000000000006 29.131
2703 29.681999999999999 33.781999999999996
2704 56.231000000000002 25.696999999999999
2705 37.475999999999999 14.723000000000001
2706 64.972999999999999 87.352000000000004
2707 33.680999999999997 30.402999999999999
2708 62.880000000000003 67.906000000000006
2709 24.309000000000001 27.363
2710 65.171000000000006 37.655999999999999
2711 63.128999999999998 75.165999999999997
2712 46.162999999999997 25.286000000000001
2713 54.423000000000002 29.873999999999999
2714 40.591999999999999 20.562000000000001
2715 27.228999999999999 29.241
2716 21.309999999999999 29.361999999999998
2717 25.478999999999999 74.447999999999993
2718 17.873999999999999 63.337000000000003
2719 63.594000000000001 31.536000000000001
2720 67.046999999999997 82.671000000000006
2721 13.388 72.891999999999996
2722 68.231999999999999 80.510000000000005
2723 32.491999999999997 45.057000000000002
2724 13.981999999999999 62.756999999999998
2725 16.757000000000001 75.966999999999999
2726 70.397999999999996 73.698999999999998
2727 21.949000000000002 33.893999999999998
2728 29.327999999999999 41.953000000000003
2729 21.622 74.570999999999998
2730 68.691000000000003 25.768999999999998
2731 30.120999999999999 56.521000000000001
2732 58.927 81.873999999999995
2733 42.539000000000001 7.8460000000000001
2734 34.259999999999998 14.074
2735 63.606999999999999 79.744
2736 58.93 24.245000000000001
2737 24.149000000000001 37.170999999999999
2738 18.068999999999999 20.733000000000001
2739 27.585000000000001 58.384
2740 20.923999999999999 76.772000000000006
2741 36.859999999999999 22.475999999999999
2742 31.408999999999999 15.705
2743 69.756 76.988
2744 27.936 56.533000000000001
2745 58.015999999999998 24.213999999999999
2746 33.247 53.616
2747 36.350000000000001 31.021999999999998
2748 27.067 28.081
2749 37.889000000000003 33.393999999999998
2750 84.406999999999996 48.445
2751 33.786000000000001 32.021999999999998
2752 22.606999999999999 25.646999999999998
2753 71.75 21.577000000000002
2754 25.206 40.918999999999997
2755 68.644000000000005 24.209
2756 20.622 81.775999999999996
2757 26.766999999999999 67.478999999999999
2758 25.872 60.779000000000003
2759 11.938000000000001 68.945999999999998
2760 71.555999999999997 42.082999999999998
2761 21.577000000000002 27.297999999999998
2762 31.385000000000002 27.236000000000001
2763 61.356999999999999 28.352
2764 25.373999999999999 43.701999999999998
2765 75.346999999999994 18.809999999999999
2766 18.722000000000001 63.990000000000002
2767 23.361000000000001 28.097000000000001
2768 61.865000000000002 68.084000000000003
2769 24.667999999999999 65.662999999999997
2770 67.260999999999996 34.494
2771 79.192999999999998 35.884999999999998
2772 24.129999999999999 64.337999999999994
2773 16.478000000000002 50.539999999999999
2774 76.394999999999996 86.159999999999997
2775 53.509999999999998 28.847000000000001
2776 58.951000000000001 16.071999999999999
2777 77.518000000000001 82.832999999999998
2778 31.097000000000001 23.186
2779 16.184000000000001 72.817999999999998
2780 72.100999999999999 75.105999999999995
2781 70.594999999999999 71.950999999999993
2782 34.472999999999999 14.095000000000001
2783 51.271999999999998 53.488999999999997
2784 38.350000000000001 26.317
2785 68.248000000000005 22.225999999999999
2786 7.3250000000000002 67.915999999999997
2787 7.6529999999999996 65.233999999999995
2788 65.067999999999998 43.439999999999998
2789 80.992999999999995 69.129999999999995
2790 28.901 65.072000000000003
2791 16.088999999999999 54.247999999999998
2792 22.024000000000001 50.679000000000002
2793 27.722999999999999 63.734000000000002
2794 27.091999999999999 61.311999999999998
2795 70.742000000000004 33.130000000000003
2796 11.645 68.063999999999993
2797 21.635999999999999 37.109000000000002
2798 29.077000000000002 25.364999999999998
2799 20.399999999999999 29.184000000000001
2800 18.263999999999999 69.603999999999999
2801 20.638999999999999 23.847000000000001
2802 40.195 34.134
2803 28.065999999999999 27.367000000000001
2804 63.738999999999997 36.173999999999999
2805 54.542999999999999 28.177
2806 21.597999999999999 23.652000000000001
2807 26.334 61.274999999999999
2808 59.000999999999998 66.849000000000004
2809 15.881 60.604999999999997
2810 23.484000000000002 21.433
2811 29.411999999999999 19.547000000000001
2812 70.188000000000002 36.137
2813 16.818000000000001 72.619
2814 59.201999999999998 76.659999999999997
2815 35.286000000000001 30.786999999999999
2816 23.687999999999999 26.359000000000002
2817 32.143000000000001 5.1289999999999996
2818 63.322000000000003 18.030999999999999
2819 45.261000000000003 35.484000000000002
2820 62.009 28.643000000000001
2821 29.114999999999998 67.799000000000007
2822 66.081000000000003 81.031999999999996
2823 32.868000000000002 47.171999999999997
2824 25.507000000000001 67.488
2825 25.532 24.728000000000002
2826 22.460999999999999 56.365000000000002
2827 68.204999999999998 91.998999999999995
2828 21.257000000000001 65.382999999999996
2829 24.963999999999999 27.856000000000002
2830 40.570999999999998 39.194000000000003
2831 58.405999999999999 67.221999999999994
2832 28.486999999999998 29.048999999999999
2833 39.015000000000001 47.442
2834 36.872 29.942
2835 52.253 32.436999999999998
2836 80.495000000000005 74.745000000000005
2837 46.468000000000004 22.544
2838 25.018000000000001 74.302000000000007
2839 68.468000000000004 75.509
2840 17.510000000000002 66.153000000000006
2841 75.248999999999995 81.829999999999998
2842 42.555 60.439999999999998
2843 12.492000000000001 61.134
2844 75.962999999999994 74.379999999999995
2845 68.744 15.885999999999999
2846 55.954000000000001 73.908000000000001
2847 21.516999999999999 79.415000000000006
2848 67.575000000000003 75.620999999999995
2849 27.113 62.253
2850 23.039999999999999 69.271000000000001
2851 30.809000000000001 31.201000000000001
2852 38.213000000000001 28.716999999999999
2853 73.406000000000006 85.593000000000004
2854 53.819000000000003 35.485999999999997
2855 24.454999999999998 82.581000000000003
2856 61.719999999999999 28.835000000000001
2857 74.040999999999997 75.918999999999997
2858 68.227000000000004 13.565
2859 13.116 67.879999999999995
2860 38.645000000000003 27.986999999999998
2861 70.989999999999995 87.210999999999999
2862 67.605999999999995 82.659999999999997
2863 75.462000000000003 29.277999999999999
2864 23.295000000000002 59.338999999999999
2865 23.259 28.922000000000001
2866 63.130000000000003 59.953000000000003
2867 36.643999999999998 25.23
2868 60.545999999999999 26.204000000000001
2869 22.652999999999999 76.665000000000006
2870 52.695999999999998 33.332999999999998
2871 39.320999999999998 63.487000000000002
2872 61.460999999999999 27.834
2873 67.659999999999997 32.982999999999997
2874 65.778000000000006 26.196000000000002
2875 17.489999999999998 70.563999999999993
2876 25.337 63.009999999999998
2877 71.721000000000004 26.931000000000001
2878 41.176000000000002 18.425999999999998
2879 83.370999999999995 69.382999999999996
2880 27.23 13.058999999999999
2881 27.309999999999999 30.696000000000002
2882 18.699999999999999 24.699999999999999
2883 17.242000000000001 25.959
2884 74.093000000000004 28.091000000000001
2885 24.667999999999999 65.629000000000005
2886 29.443999999999999 73.581000000000003
2887 24.609000000000002 61.201999999999998
2888 58.670999999999999 36.267000000000003
2889 21.297999999999998 64.364999999999995
2890 20.574000000000002 72.950000000000003
2891 26.923999999999999 24.888000000000002
2892 26.029 66.150000000000006
2893 31.937999999999999 71.793000000000006
2894 21.094000000000001 73.364999999999995
2895 13.539999999999999 62.75
2896 28.997 61.273000000000003
2897 66.944999999999993 23.236999999999998
2898 24.995999999999999 29.465
2899 20.132000000000001 72.424000000000007
2900 31.131 62.320999999999998
2901 33.741 18.222000000000001
2902 29.350999999999999 22.908999999999999
2903 71.555999999999997 32.277000000000001
2904 21.042000000000002 56.551000000000002
2905 33.292000000000002 71.587000000000003
2906 67.522000000000006 69.462999999999994
2907 76.221000000000004 75.682000000000002
2908 26.815000000000001 32.098999999999997
2909 35.993000000000002 23.085000000000001
2910 50.256999999999998 27.495000000000001
2911 57.292999999999999 16.754999999999999
2912 68.427999999999997 37.609999999999999
2913 70.671000000000006 23.393000000000001
2914 9.7789999999999999 61.951000000000001
2915 23.367999999999999 39.707999999999998
2916 75.450999999999993 86.364000000000004
2917 19.802 69.793000000000006
2918 54.377000000000002 80.409999999999997
2919 66.423000000000002 66.650000000000006
2920 20.562999999999999 61.136000000000003
2921 26.602 15.994
2922 63.622 23.335000000000001
2923 74.971999999999994 80.189999999999998
2924 37.844999999999999 30.097999999999999
2925 28.288 24.210000000000001
2926 30.513000000000002 53.893000000000001
2927 16.416 63.625999999999998
2928 32.350999999999999 30.902000000000001
2929 44.401000000000003 34.027999999999999
2930 66.769000000000005 79.620000000000005
2931 30.893000000000001 58.662999999999997
2932 77.328999999999994 86.795000000000002
2933 27.632999999999999 20.081
2934 52.715000000000003 32.585999999999999
2935 73.897999999999996 21.613
2936 26.561 58.131
2937 63.728000000000002 27.283999999999999
2938 67.555000000000007 62.454999999999998
2939 22.178999999999998 34.276000000000003
2940 40.057000000000002 22.132999999999999
2941 26.754000000000001 66.228999999999999
2942 43.695 20.233000000000001
2943 29.721 16.786000000000001
2944 74.707999999999998 34.673999999999999
2945 60.250999999999998 32.689999999999998
2946 66.611000000000004 74.326999999999998
2947 70.426000000000002 73.432000000000002
2948 23.199000000000002 26.169
2949 69.617999999999995 80.522999999999996
2950 64.084999999999994 50.587000000000003
2951 18.245000000000001 55.424999999999997
2952 12.83 54.268999999999998
2953 35.497 30.658999999999999
2954 31.280999999999999 33.290999999999997
2955 62.904000000000003 83.765000000000001
2956 78.885999999999996 87.655000000000001
2957 22.786999999999999 67.620000000000005
2958 32.311999999999998 58.793999999999997
2959 68.646000000000001 81.028000000000006
2960 31.719999999999999 52.061999999999998
2961 83.207999999999998 62.908999999999999
2962 67.283000000000001 27.152000000000001
2963 75.840000000000003 94.114999999999995
2964 68.543000000000006 23.484000000000002
2965 59.155999999999999 69.790000000000006
2966 71.245000000000005 86.861999999999995
2967 38.872999999999998 25.908999999999999
2968 30.346 33.552
2969 28.952999999999999 30.338999999999999
2970 77.328999999999994 36.994999999999997
2971 28.489999999999998 56.290999999999997
2972 52.762999999999998 24.652999999999999
2973 22.003 70.078000000000003
2974 12.554 68.763999999999996
2975 61.738999999999997 34.253
2976 46.381 29.547000000000001
2977 61.884999999999998 87.269000000000005
2978 61.805999999999997 66.792000000000002
2979 56.277000000000001 23.366
2980 33.377000000000002 31.052
2981 86.991 64.849000000000004
2982 71.775999999999996 38.572000000000003
2983 23.016999999999999 59.848999999999997
2984 16.635000000000002 27.728999999999999
2985 75.569999999999993 21.038
2986 75.497 38.563000000000002
2987 72.584999999999994 27.417999999999999
2988 24.376999999999999 37.881
2989 18.434000000000001 74.370999999999995
2990 64.790000000000006 28.584
2991 45.029000000000003 84.200000000000003
2992 24.838000000000001 63.530999999999999
2993 26.780999999999999 79.736000000000004
2994 35.686999999999998 33.593000000000004
2995 61.348999999999997 78.670000000000002
2996 75.545000000000002 23.324999999999999
2997 25.035 35.018999999999998
2998 74.316000000000003 89.063999999999993
2999 67.462999999999994 79.186000000000007
3000 32.256 33.826000000000001
3001 12.856 30.277999999999999
3002 62.273000000000003 42.270000000000003
3003 45.118000000000002 12.877000000000001
3004 30.199999999999999 22.597000000000001
3005 18.149000000000001 11.302
3006 19.478999999999999 42.491
3007 24.355 68.140000000000001
3008 14.266 71.823999999999998
3009 29.189 62.015999999999998
3010 57.968000000000004 33.265000000000001
3011 28.164999999999999 17.274000000000001
3012 26.725000000000001 67.286000000000001
3013 22.492999999999999 65.933999999999997
3014 74.590000000000003 19.771999999999998
3015 56.975000000000001 25.774000000000001
3016 67.147999999999996 33.841000000000001
3017 22.289000000000001 19.163
3018 75.834000000000003 21.541
3019 72.513000000000005 78.302000000000007
3020 25.974 16.927
3021 28.446999999999999 63.540999999999997
3022 71.144999999999996 75.489999999999995
3023 32.372 28.327000000000002
3024 54.026000000000003 79.876000000000005
3025 66.927999999999997 67.855000000000004
3026 67.597999999999999 22.939
3027 58.825000000000003 88.203000000000003
3028 71.751000000000005 77.25
3029 64.132999999999996 84.088999999999999
3030 64.873999999999995 83.492999999999995
3031 15.42 20.588000000000001
3032 20.462 51.286999999999999
3033 40.823999999999998 17.792000000000002
3034 33.475999999999999 17.742000000000001
3035 77.361000000000004 64.915000000000006
3036 71.019999999999996 27.544
3037 74.117000000000004 24.722000000000001
3038 14.941000000000001 67.867000000000004
3039 21.821999999999999 69.366
3040 78.816000000000003 14.936999999999999
3041 29.111999999999998 31.995000000000001
3042 35.557000000000002 26.93
3043 28.120000000000001 24.129000000000001
3044 17.254000000000001 66.769999999999996
3045 15.705 68.424000000000007
3046 65.042000000000002 77.587999999999994
3047 52.404000000000003 12.564
3048 15.227 70.064999999999998
3049 25.221 13.802
3050 64.247 77.105999999999995
3051 55.421999999999997 27.576000000000001
3052 16.391999999999999 77.221000000000004
3053 31.544 77.197000000000003
3054 63.762999999999998 85.222999999999999
3055 71.394000000000005 68.819999999999993
3056 43.43 11.861000000000001
3057 19.550000000000001 31.844999999999999
3058 27.18 74.652000000000001
3059 18.193999999999999 30.826000000000001
3060 62.463000000000001 33.984000000000002
3061 61.738999999999997 82.218999999999994
3062 89.081000000000003 20.401
3063 69.876999999999995 35.091999999999999
3064 70.424000000000007 81.022999999999996
3065 21.808 53.703000000000003
3066 71.111999999999995 73.149000000000001
3067 16.739000000000001 65.885000000000005
3068 31.068000000000001 13.837
3069 17.288 74.433000000000007
3070 57.627000000000002 82.218000000000004
3071 47.234999999999999 24.442
3072 62.473999999999997 65.793000000000006
3073 73.909999999999997 77.284999999999997
3074 30.995000000000001 63.921999999999997
3075 78.313000000000002 91.305999999999997
3076 16.577999999999999 21.823
3077 5.258 74.977999999999994
3078 55.670999999999999 76.530000000000001
3079 55.787999999999997 67.459999999999994
3080 65.986999999999995 33.978999999999999
3081 54.304000000000002 71.25
3082 75.700999999999993 68.194999999999993
3083 60.781999999999996 67.040999999999997
3084 5.1840000000000002 86.933000000000007
3085 67.733999999999995 16.436
3086 26.119 32.447000000000003
3087 77.423000000000002 75.744
3088 19.997 34.512
3089 61.194000000000003 85.162999999999997
3090 75.849999999999994 28.649999999999999
3091 16.908999999999999 62.097999999999999
3092 70.510000000000005 77.287000000000006
3093 88.731999999999999 76.980999999999995
3094 19.655999999999999 67.213999999999999
3095 57.238 37.006999999999998
3096 22.684999999999999 62.457000000000001
3097 61.262 27.632000000000001
3098 60.960999999999999 31.199000000000002
3099 21.335999999999999 65.090000000000003
3100 65.242999999999995 78.983999999999995
3101 67.914000000000001 20.076000000000001
3102 54.594000000000001 25.282
3103 32.798000000000002 54.395000000000003
3104 71.305000000000007 82.161000000000001
3105 25.998000000000001 76.974999999999994
3106 60.874000000000002 62.959000000000003
3107 61.877000000000002 76.013000000000005
3108 57.051000000000002 32.075000000000003
3109 49.860999999999997 72.689999999999998
3110 7.3769999999999998 57.167000000000002
3111 17.527000000000001 33.661000000000001
3112 22.611999999999998 19.094999999999999
3113 21.593 41.622999999999998
3114 47.822000000000003 68.174999999999997
3115 64.674000000000007 30.254999999999999
3116 40.731999999999999 33.987000000000002
3117 25.600000000000001 34.975000000000001
3118 13.936 66.376999999999995
3119 26.539000000000001 22.443999999999999
3120 19.838000000000001 79.954999999999998
3121 23.225999999999999 13.551
3122 30.451000000000001 26.341999999999999
3123 63.198999999999998 82.911000000000001
3124 25.757999999999999 65.724999999999994
3125 47.991999999999997 24.905999999999999
3126 62.061999999999998 31.719999999999999
3127 62.338000000000001 23.417999999999999
3128 35.712000000000003 23.687000000000001
3129 63.941000000000003 16.919
3130 34.781999999999996 42.720999999999997
3131 54.042999999999999 37.753
3132 66.066000000000003 16.018000000000001
3133 27.471 38.363
3134 18.327999999999999 62.875999999999998
3135 51.015000000000001 31.303999999999998
3136 71.031000000000006 82.950000000000003
3137 67.244 21.613
3138 36.029000000000003 53.807000000000002
3139 60.969999999999999 83.152000000000001
3140 31.763000000000002 13.895
3141 12.987 52.917999999999999
3142 72.584000000000003 39.588999999999999
3143 16.556999999999999 13.061
3144 38.546999999999997 24.986999999999998
3145 25.699999999999999 33.286999999999999
3146 72.489999999999995 80.894999999999996
3147 22.486000000000001 55.994
3148 37.229999999999997 28.327999999999999
3149 86.811999999999998 70.950000000000003
3150 27.093 45.226999999999997
3151 73.968000000000004 28.306999999999999
3152 27.797000000000001 26.844999999999999
3153 63.658999999999999 23.887
3154 81.075999999999993 83.340000000000003
3155 14.067 28.026
3156 68.087999999999994 25.181999999999999
3157 29.446999999999999 30.420999999999999
3158 13.413 78.189999999999998
3159 22.754999999999999 29.629999999999999
3160 29.405000000000001 18.324000000000002
3161 26.82 34.488999999999997
3162 7.2290000000000001 67.135999999999996
3163 63.198999999999998 38.893000000000001
3164 31.959 11.055999999999999
3165 85.721000000000004 97.361000000000004
3166 22.324999999999999 57.741
3167 16.623999999999999 71.081000000000003
3168 27.527999999999999 34.933
3169 38.271000000000001 19.597999999999999
3170 5.2199999999999998 66.540000000000006
3171 67.486000000000004 15.766999999999999
3172 61.911000000000001 80.597999999999999
3173 65.215999999999994 71.025999999999996
3174 51.893999999999998 15.398
3175 67.741 71.040999999999997
3176 73.635999999999996 79.744
3177 40.634999999999998 9.8480000000000008
3178 66.293000000000006 73.998999999999995
3179 35.640999999999998 39.334000000000003
3180 27.916 26.456
3181 32.582999999999998 21.902999999999999
3182 18.125 24.914000000000001
3183 80.975999999999999 63.313000000000002
3184 71.902000000000001 71.522999999999996
3185 58.890999999999998 17.550999999999998
3186 42.854999999999997 20.065000000000001
3187 24.353999999999999 21.311
3188 60.348999999999997 22.026
3189 63.213999999999999 26.837
3190 55.179000000000002 75.710999999999999
3191 75.292000000000002 80.263000000000005
3192 78.117999999999995 92.626000000000005
3193 73.144999999999996 28.760000000000002
3194 34.899999999999999 18.332999999999998
3195 25.786000000000001 68.024000000000001
3196 37.078000000000003 16.475999999999999
3197 64.239000000000004 74.456999999999994
3198 30.774000000000001 60.387999999999998
3199 36.667000000000002 32.834000000000003
3200 68.361000000000004 33.267000000000003
3201 15.384 19.088999999999999
3202 14.712 64.584999999999994
3203 65.513999999999996 67.037000000000006
3204 67.608000000000004 18.780000000000001
3205 72.665000000000006 30.501999999999999
3206 67.793000000000006 72.588999999999999
3207 36.902000000000001 31.276
3208 54.509 20.385000000000002
3209 24.404 12.877000000000001
3210 29.302 28.402000000000001
3211 28.937999999999999 68.634
3212 30.803999999999998 33.338000000000001
3213 67.587000000000003 27.741
3214 43.212000000000003 27.922999999999998
3215 14.545 65.783000000000001
3216 37.695999999999998 60.213000000000001
3217 8.6600000000000001 66.403999999999996
3218 68.358000000000004 62.127000000000002
3219 22.576000000000001 35.954999999999998
3220 69.298000000000002 80.266000000000005
3221 14.891 68.116
3222 62.246000000000002 67.864999999999995
3223 38.314 13.922000000000001
3224 68.215999999999994 76.733000000000004
3225 65.522000000000006 29.081
3226 32.335999999999999 30.439
3227 47.054000000000002 20.245999999999999
3228 39.179000000000002 41.430999999999997
3229 24.997 66.344999999999999
3230 69.924000000000007 72.591999999999999
3231 39.286999999999999 69.412000000000006
3232 67.688000000000002 29.082999999999998
3233 52.219000000000001 77.090999999999994
3234 67.106999999999999 81.427999999999997
3235 66.063000000000002 30.334
3236 34.837000000000003 24.303000000000001
3237 21.681999999999999 60.920999999999999
3238 61.677999999999997 87.688000000000002
3239 28.254999999999999 66.272000000000006
3240 24.021000000000001 59.304000000000002
3241 27.367000000000001 58.329999999999998
3242 73.006 69.228999999999999
3243 70.789000000000001 18.158999999999999
3244 63.493000000000002 25.655999999999999
3245 42.003999999999998 6.7060000000000004
3246 29.978000000000002 64.091999999999999
3247 68.563000000000002 18.337
3248 18.128 17.617999999999999
3249 73.623000000000005 87.784000000000006
3250 31.789000000000001 65.837999999999994
3251 73.972999999999999 27.823
3252 26.425000000000001 62.398000000000003
3253 27.257999999999999 18.959
3254 68.453000000000003 94.956999999999994
3255 52.066000000000003 70.025000000000006
3256 17.847000000000001 71.475999999999999
3257 35.905000000000001 65.573999999999998
3258 2.1349999999999998 69.054000000000002
3259 15.766 78.415000000000006
3260 35.695 34.216000000000001
3261 34.850999999999999 94.409000000000006
3262 24.672000000000001 71.109999999999999
3263 31.501000000000001 72.012
3264 62.677 77.986000000000004
3265 62.323 26.064
3266 63.616999999999997 40.164999999999999
3267 71.367000000000004 70.046999999999997
3268 75.602000000000004 82.420000000000002
3269 27.77 23.338999999999999
3270 58.210000000000001 73.100999999999999
3271 27.212 57.968000000000004
3272 76.873999999999995 91.346000000000004
3273 23.798999999999999 67.438999999999993
3274 72.099999999999994 83.561999999999998
3275 30.553999999999998 70.272999999999996
3276 39.771999999999998 52.451000000000001
3277 30.224 67.537999999999997
3278 68.531999999999996 68.616
3279 70.891000000000005 70.563000000000002
3280 27.265999999999998 31.132000000000001
3281 14.733000000000001 77.105000000000004
3282 49.786999999999999 25.707999999999998
3283 57.439999999999998 27.108000000000001
3284 33.009 68.477999999999994
3285 63.612000000000002 79.453000000000003
3286 65.450000000000003 77.478999999999999
3287 22.216000000000001 67.075000000000003
3288 71.492000000000004 77.804000000000002
3289 25.759 76.054000000000002
3290 68.944000000000003 34.912999999999997
3291 61.366999999999997 74.445999999999998
3292 33.018999999999998 35.344000000000001
3293 24.459 60.432000000000002
3294 28.140000000000001 30.122
3295 59.752000000000002 28.471
3296 59.417000000000002 84.135000000000005
3297 63.622 81.516000000000005
3298 58.427999999999997 22.292000000000002
3299 55.810000000000002 17.542999999999999
3300 29.158000000000001 31.335999999999999
3301 78.388000000000005 77.213999999999999
3302 70.456000000000003 30.004000000000001
3303 23.359000000000002 71.876999999999995
3304 26.48 75.762
3305 60.697000000000003 30.251999999999999
3306 35.320999999999998 69.073999999999998
3307 72.450999999999993 26.5
3308 34.326999999999998 14.938000000000001
3309 73.370000000000005 75.200999999999993
3310 67.584999999999994 25.199000000000002
3311 74.533000000000001 78.126000000000005
3312 57.268000000000001 18.067
3313 57.295000000000002 33.664999999999999
3314 59.095999999999997 80.852000000000004
3315 23.831 28.995000000000001
3316 51.362000000000002 59.856000000000002
3317 67.945999999999998 38.859000000000002
3318 54.671999999999997 90.635999999999996
3319 27.152000000000001 33.570999999999998
3320 30.484999999999999 64.021000000000001
3321 69.906000000000006 89.881
3322 28.459 79.313999999999993
3323 20.207000000000001 61.598999999999997
3324 65.400000000000006 0.10100000000000001
3325 66.689999999999998 89.683000000000007
3326 60.576000000000001 29.367000000000001
3327 27.143999999999998 76.134
3328 44.832000000000001 20.663
3329 67.923000000000002 25.239000000000001
3330 80.129999999999995 28.363
3331 27.452000000000002 62.238999999999997
3332 37.375999999999998 29.925999999999998
3333 81.140000000000001 81.310000000000002
3334 71.759 31.416
3335 15.048 59.695
3336 63.640000000000001 68.873999999999995
3337 26.870000000000001 23.765999999999998
3338 75.575000000000003 78.608999999999995
3339 49.298000000000002 10.643000000000001
3340 42.935000000000002 19.451000000000001
3341 24.542000000000002 58.198999999999998
3342 15.971 72.816000000000003
3343 23.670000000000002 74.373000000000005
3344 68.278000000000006 70.754999999999995
3345 26.164999999999999 21.555
3346 70.212000000000003 75.534000000000006
3347 40.167999999999999 33.718000000000004
3348 74.200999999999993 76.465999999999994
3349 76.519000000000005 77.673000000000002
3350 51.287999999999997 26.780000000000001
3351 18.597999999999999 74.606999999999999
3352 67.396000000000001 16.908000000000001
3353 84.826999999999998 65.692999999999998
3354 22.974 59.496000000000002
3355 62.408000000000001 70.921000000000006
3356 49.25 26.027000000000001
3357 70.652000000000001 30.559000000000001
3358 25.558 68.525999999999996
3359 26.434999999999999 71.858000000000004
3360 20.637 80.567999999999998
3361 18.289999999999999 70.641000000000005
3362 86.968000000000004 88.478999999999999
3363 30.399999999999999 23.884
3364 44.703000000000003 66.617999999999995
3365 32.456000000000003 22.710999999999999
3366 22.670999999999999 68.269000000000005
3367 71.131 34.674999999999997
3368 64.137 70.850999999999999
3369 30.369 25.597000000000001
3370 31.780000000000001 55.734999999999999
3371 27.274000000000001 59.301000000000002
3372 33.222999999999999 32.329999999999998
3373 78.347999999999999 45.122
3374 72.528999999999996 25.783000000000001
3375 48.695999999999998 18.523
3376 31.257999999999999 18.550999999999998
3377 34.923000000000002 60.451000000000001
3378 36.68 66.296000000000006
3379 69.805999999999997 82.388000000000005
3380 63.204999999999998 72.379999999999995
3381 65.323999999999998 69.418000000000006
3382 12.603 24.719000000000001
3383 29.535 21.119
3384 34.921999999999997 53.218000000000004
3385 14.349 58.539000000000001
3386 24.765999999999998 31.98
3387 68.915000000000006 22.634
3388 34.073 59.899999999999999
3389 20.98 64.504000000000005
3390 72.275999999999996 79.001999999999995
3391 7.0030000000000001 52.347999999999999
3392 33.109999999999999 65.540000000000006
3393 66.423000000000002 87.620000000000005
3394 31.294 20.856000000000002
3395 11.428000000000001 69.766999999999996
3396 26.259 31.658999999999999
3397 18.213000000000001 66.079999999999998
3398 28.707000000000001 71.503
3399 67.028000000000006 39.008000000000003
3400 62.703000000000003 74.709999999999994
3401 73.073999999999998 78.816000000000003
3402 64.122 14.587
3403 62.899000000000001 18.016999999999999
3404 26.484999999999999 78.965999999999994
3405 40.652000000000001 31.036999999999999
3406 56.872999999999998 90.694999999999993
3407 71.879000000000005 22.498000000000001
3408 48.069000000000003 37.567999999999998
3409 48.109000000000002 73.424999999999997
3410 30.443000000000001 77.965000000000003
3411 68.515000000000001 22.904
3412 67.942999999999998 75.623999999999995
3413 37.183 18.376000000000001
3414 32.082999999999998 55.545000000000002
3415 22.003 62.670999999999999
3416 61.654000000000003 28.719999999999999
3417 30.215 20.327000000000002
3418 73.933999999999997 81.623000000000005
3419 54.854999999999997 22.927
3420 68.179000000000002 29.189
3421 23.515999999999998 61.649000000000001
3422 70.314999999999998 83.953999999999994
3423 66.582999999999998 16.902999999999999
3424 68.658000000000001 18.449999999999999
3425 67.841999999999999 19.475000000000001
3426 61.600000000000001 36.588000000000001
3427 62.052999999999997 20.989000000000001
3428 56.704000000000001 29.186
3429 67.679000000000002 40.323
3430 25.413 22.358000000000001
3431 31.190999999999999 31.177
3432 72.494 31.062000000000001
3433 24.670000000000002 56.509
3434 57.561 69.896000000000001
3435 40.710000000000001 28.742000000000001
3436 20.812999999999999 74.704999999999998
3437 41.430999999999997 22.853999999999999
3438 28.193999999999999 34.195
3439 62.027000000000001 93
3440 68.372 83.539000000000001
3441 16.079000000000001 36.249000000000002
3442 65.917000000000002 25.998000000000001
3443 21.731000000000002 66.704999999999998
3444 32.582000000000001 23.076000000000001
3445 66.906000000000006 81.629000000000005
3446 19.460999999999999 64.909999999999997
3447 22.606000000000002 49.167000000000002
3448 40.146999999999998 33.950000000000003
3449 68.772999999999996 34.445999999999998
3450 17.908000000000001 76.147999999999996
3451 68.335999999999999 84.320999999999998
3452 73.007999999999996 24.059000000000001
3453 73.938999999999993 77.662000000000006
3454 41.761000000000003 27.035
3455 20.385999999999999 43.298000000000002
3456 68.691000000000003 85.114999999999995
3457 25.315999999999999 21.559999999999999
3458 66.745999999999995 84.703000000000003
3459 27.071000000000002 17.036000000000001
3460 54.615000000000002 18.411999999999999
3461 69.641000000000005 87.951999999999998
3462 18.013999999999999 69.168999999999997
3463 69.248999999999995 80.346000000000004
3464 64.433000000000007 22.748999999999999
3465 15.573 20.323
3466 11.587 54.380000000000003
3467 56.542000000000002 16.638000000000002
3468 19.754000000000001 70.808999999999997
3469 73.504999999999995 26.77
3470 75.381 81.796999999999997
3471 12.390000000000001 70.876000000000005
3472 61.889000000000003 22.704000000000001
3473 74.358000000000004 78.194000000000003
3474 17.439 63.972000000000001
3475 22.722999999999999 27.175999999999998
3476 78.221000000000004 79.388999999999996
3477 67.106999999999999 26.997
3478 12.196999999999999 53.805999999999997
3479 19.591000000000001 66.319000000000003
3480 28.555 23.434000000000001
3481 30.686 13.515000000000001
3482 69.103999999999999 78.698999999999998
3483 62.505000000000003 84.709000000000003
3484 77.885999999999996 72.742999999999995
3485 11.077 16.446999999999999
3486 59.273000000000003 30.684000000000001
3487 78.894999999999996 97.581999999999994
3488 70.507000000000005 81.960999999999999
3489 29.949999999999999 16.062000000000001
3490 25.654 39.359000000000002
3491 13.016 60.613999999999997
3492 54.204999999999998 81.930000000000007
3493 63.479999999999997 32.189999999999998
3494 68.322999999999993 19.847999999999999
3495 58.436 22.864999999999998
3496 49.490000000000002 9.3160000000000007
3497 18.337 68.957999999999998
3498 75.784999999999997 79.695999999999998
3499 68.396000000000001 6.3339999999999996
3500 59.628999999999998 24.914999999999999
3501 17.128 61.198999999999998
3502 69.724999999999994 24.007999999999999
3503 29.041 57.435000000000002
3504 37.564 52.036999999999999
3505 28.846 11.641
3506 75.734999999999999 84.728999999999999
3507 57.994999999999997 64.728999999999999
3508 67.143000000000001 70.793999999999997
3509 15.223000000000001 72.747
3510 74.620999999999995 74.995000000000005
3511 66.962999999999994 85.132000000000005
3512 14.708 84.347999999999999
3513 75.894999999999996 38.470999999999997
3514 32.877000000000002 18.701000000000001
3515 35.539000000000001 64.935000000000002
3516 66.780000000000001 36.478000000000002
3517 31.928999999999998 59.664000000000001
3518 30.472000000000001 34.545000000000002
3519 47.786000000000001 83.748999999999995
3520 66.486999999999995 70.207999999999998
3521 77.054000000000002 20.956
3522 78.540999999999997 84.156999999999996
3523 69.030000000000001 60.658999999999999
3524 24.428999999999998 14.928000000000001
3525 9.5449999999999999 66.816000000000003
3526 16.663 71.816000000000003
3527 69.001000000000005 39.466000000000001
3528 20.5 59.173000000000002
3529 68.372 30.963999999999999
3530 32.496000000000002 27.001000000000001
3531 49.289999999999999 17.617999999999999
3532 72.359999999999999 22.026
3533 55.790999999999997 30.670000000000002
3534 25.033999999999999 9.5510000000000002
3535 26.437999999999999 19.158999999999999
3536 17.949999999999999 28.068000000000001
3537 18.952000000000002 63.119999999999997
3538 31.027999999999999 51.216999999999999
3539 60.097000000000001 16.873000000000001
3540 63.835000000000001 35.518000000000001
3541 71.305999999999997 80.347999999999999
3542 61.625999999999998 24.344999999999999
3543 31.611000000000001 68.197999999999993
3544 18.658000000000001 60.981999999999999
3545 17.779 64.834000000000003
3546 69.844999999999999 79.802000000000007
3547 31.808 14.260999999999999
3548 17.167000000000002 53.603999999999999
3549 11.205 66.058000000000007
3550 38.737000000000002 11.061
3551 56.119999999999997 73.135999999999996
3552 78.927999999999997 78.503
3553 20.548999999999999 53.369
3554 17.379000000000001 29.309000000000001
3555 66.599000000000004 8.1140000000000008
3556 65.090000000000003 40.715000000000003
3557 18.550999999999998 47.014000000000003
3558 33.552999999999997 58.765999999999998
3559 70.474999999999994 84.317999999999998
3560 53.372 18.343
3561 65.763999999999996 88.406999999999996
3562 25.068999999999999 67.436999999999998
3563 71.665000000000006 80.522999999999996
3564 28.68 25.937000000000001
3565 66.397999999999996 29.771000000000001
3566 78.981999999999999 83.578000000000003
3567 69.203000000000003 22.994
3568 69.677999999999997 21.853000000000002
3569 73.478999999999999 85.548000000000002
3570 68.058000000000007 75.715999999999994
3571 62.866 75.141000000000005
3572 34.948999999999998 39.947000000000003
3573 45.036000000000001 24.789999999999999
3574 33.082999999999998 71.969999999999999
3575 54.939999999999998 33.18
3576 61.756 32.030000000000001
3577 56.962000000000003 24.216000000000001
3578 39.197000000000003 18.117999999999999
3579 26.094999999999999 29.739999999999998
3580 68.111000000000004 88.001000000000005
3581 66.944000000000003 37.198
3582 15.506 74.721999999999994
3583 63.503999999999998 26.722999999999999
3584 62.908000000000001 83.272000000000006
3585 29.344000000000001 31.422999999999998
3586 60.765000000000001 26.690999999999999
3587 12.804 77.405000000000001
3588 27.856000000000002 17.154
3589 59.024999999999999 62.761000000000003
3590 19.951000000000001 68.271000000000001
3591 33.688000000000002 79.478999999999999
3592 35.546999999999997 25.992999999999999
3593 70.284999999999997 85.933999999999997
3594 80.066000000000003 12.054
3595 18.465 78.238
3596 77.120999999999995 84.491
3597 62.843000000000004 84.099000000000004
3598 58.558999999999997 74.433999999999997
3599 67.834999999999994 40.183
3600 34.384 30.260999999999999
3601 76.855999999999995 66.269999999999996
3602 24.099 26.010999999999999
3603 63.752000000000002 71.260000000000005
3604 62.661000000000001 31.872
3605 61.493000000000002 14.833
3606 68.103999999999999 99.094999999999999
3607 16.806000000000001 68.504000000000005
3608 30.280999999999999 62.186999999999998
3609 18.523 50.502000000000002
3610 67.728999999999999 28.870000000000001
3611 31.088999999999999 60.290999999999997
3612 34.942 17.439
3613 71.013000000000005 27.882000000000001
3614 36.968000000000004 22.641999999999999
3615 76.971000000000004 16.018000000000001
3616 57.189 76.239999999999995
3617 65.316999999999993 15.041
3618 86.031999999999996 19.425999999999998
3619 48.737000000000002 30.401
3620 20.030000000000001 63.252000000000002
3621 26.382999999999999 33.752000000000002
3622 47.296999999999997 16.327999999999999
3623 6.7610000000000001 77.281000000000006
3624 23.109999999999999 59.448
3625 58.804000000000002 78.894000000000005
3626 62.978999999999999 74.753
3627 40.893000000000001 18.452000000000002
3628 23.920000000000002 24.341000000000001
3629 58.969999999999999 17.366
3630 14.231 63.146999999999998
3631 76.635000000000005 83.849000000000004
3632 61.661999999999999 39.819000000000003
3633 67.138000000000005 23.530000000000001
3634 26.783999999999999 27.382999999999999
3635 41.771999999999998 22.672999999999998
3636 67.159000000000006 42.500999999999998
3637 40.000999999999998 32.973999999999997
3638 14.584 70.474999999999994
3639 65.465999999999994 19.056999999999999
3640 60.351999999999997 40.726999999999997
3641 27.141999999999999 35.116
3642 59.271999999999998 33.597999999999999
3643 49.014000000000003 43.866999999999997
3644 32.698999999999998 68.307000000000002
3645 15.782999999999999 61.476999999999997
3646 26.227 70.790000000000006
3647 67.317999999999998 73.629999999999995
3648 39.924999999999997 19.789000000000001
3649 39.345999999999997 70.457999999999998
3650 60.406999999999996 70.929000000000002
3651 31.388999999999999 24.102
3652 72.353999999999999 68.858000000000004
3653 39.57 26.460000000000001
3654 67.367000000000004 94.837000000000003
3655 29.248999999999999 68.671000000000006
3656 67.481999999999999 45.204999999999998
3657 63.079999999999998 76.566000000000003
3658 68.537999999999997 80.001000000000005
3659 63.597999999999999 18.495000000000001
3660 64.138999999999996 78.772999999999996
3661 65.991 20.030000000000001
3662 67.909999999999997 86.587000000000003
3663 64.344999999999999 31.52
3664 73.799000000000007 88.629000000000005
3665 54.668999999999997 78.218999999999994
3666 29.771999999999998 70.828000000000003
3667 64.712999999999994 29.821999999999999
3668 75.290000000000006 73.203999999999994
3669 67.385000000000005 85.319999999999993
3670 17.963999999999999 65.661000000000001
3671 21.009 82.106999999999999
3672 66.522000000000006 35.009999999999998
3673 74.263000000000005 23.709
3674 8.9580000000000002 60.003999999999998
3675 52.784999999999997 32.332999999999998
3676 29.100999999999999 86.219999999999999
3677 60.659999999999997 66.135999999999996
3678 19.059000000000001 61.668999999999997
3679 52.174999999999997 32.476999999999997
3680 32.859999999999999 40.545999999999999
3681 56.551000000000002 30.571000000000002
3682 39.167999999999999 33.765000000000001
3683 17.888999999999999 34.561
3684 59.601999999999997 80.194000000000003
3685 73.805999999999997 36.395000000000003
3686 11.153 24.548999999999999
3687 68.974999999999994 69.156999999999996
3688 63.469000000000001 84.108999999999995
3689 65.031000000000006 16.600999999999999
3690 68.534000000000006 66.689999999999998
3691 16.177 59.976999999999997
3692 33.401000000000003 33.793999999999997
3693 21.693999999999999 15.045
3694 53.045000000000002 44.488
3695 21.686 73.141000000000005
3696 20.503 75.563999999999993
3697 74.864000000000004 81.372
3698 28.623000000000001 69.572999999999993
3699 27.59 22.719999999999999
3700 65.438000000000002 72.230999999999995
3701 20.058 76.409000000000006
3702 20.225999999999999 66.710999999999999
3703 47.463999999999999 37.204999999999998
3704 64.599999999999994 98.742000000000004
3705 22.675999999999998 64.840999999999994
3706 29.405000000000001 30.513999999999999
3707 14.497 77.591999999999999
3708 72.504000000000005 81.304000000000002
3709 22.350999999999999 65.816000000000003
3710 40.381999999999998 75.075000000000003
3711 20.651 32.093000000000004
3712 57.911000000000001 84.662999999999997
3713 76.272999999999996 77.793999999999997
3714 55.938000000000002 37.194000000000003
3715 66.792000000000002 91.183999999999997
3716 25.398 31.963999999999999
3717 31.099 23.024000000000001
3718 51.476999999999997 72.962999999999994
3719 30.713999999999999 27.015999999999998
3720 75.454999999999998 24.614999999999998
3721 77.593000000000004 84.221999999999994
3722 80.747 83.156999999999996
3723 43.317999999999998 6.0810000000000004
3724 61.118000000000002 15.007999999999999
3725 59.396000000000001 19.984999999999999
3726 61.743000000000002 78.489000000000004
3727 26.584 58.243000000000002
3728 32.015999999999998 34.966999999999999
3729 31.268999999999998 18.111999999999998
3730 25.66 31.503
3731 68.600999999999999 68.414000000000001
3732 58.015999999999998 24.451000000000001
3733 35.828000000000003 39.521999999999998
3734 22.814 32.039999999999999
3735 23.984000000000002 15.455
3736 65.584000000000003 32.395000000000003
3737 68.009 80.706999999999994
3738 28.018000000000001 24.338000000000001
3739 24.693999999999999 51
3740 30.460000000000001 20.629999999999999
3741 26.783000000000001 61.322000000000003
3742 73.814999999999998 80.765000000000001
3743 60.966000000000001 82.465999999999994
3744 66.861999999999995 84.597999999999999
3745 26.917000000000002 60.539000000000001
3746 31.186 61.929000000000002
3747 63.844999999999999 85.831000000000003
3748 24.648 74.724000000000004
3749 61.981999999999999 28.061
3750 26.350999999999999 61.825000000000003
3751 74.709999999999994 26.940999999999999
3752 29.43 24.187000000000001
3753 30.34 33.677
3754 20.024999999999999 27.475000000000001
3755 63.234999999999999 17.811
3756 65.616 9.9890000000000008
3757 64.780000000000001 17.983000000000001
3758 22.503 84.683000000000007
3759 66.174000000000007 43.780000000000001
3760 36.265000000000001 19.946000000000002
3761 25.417999999999999 14.662000000000001
3762 66.334999999999994 19.997
3763 23.114999999999998 18.869
3764 34.578000000000003 24.629000000000001
3765 70.676000000000002 79.222999999999999
3766 27.036000000000001 28.901
3767 70.450000000000003 66.784999999999997
3768 71.039000000000001 16.446999999999999
3769 62.350000000000001 27.411000000000001
3770 28.145 66.531000000000006
3771 30.353000000000002 25.286000000000001
3772 12.59 72.412000000000006
3773 43.572000000000003 17.463999999999999
3774 63.680999999999997 73.787000000000006
3775 59.551000000000002 18.869
3776 25.190000000000001 62.420000000000002
3777 45.347000000000001 44.581000000000003
3778 70.507999999999996 30.954999999999998
3779 65.906999999999996 36.216999999999999
3780 65.920000000000002 72.248999999999995
3781 71.186999999999998 16.872
3782 35.75 34.274999999999999
3783 21.431999999999999 62.944000000000003
3784 68.722999999999999 31.916
3785 71.236000000000004 77.323999999999998
3786 16.632000000000001 75.838999999999999
3787 18.036000000000001 36.374000000000002
3788 70.361000000000004 34.825000000000003
3789 38.878 67.334999999999994
3790 32.738 62.552
3791 59.561999999999998 34.716000000000001
3792 69.221000000000004 86.454999999999998
3793 33.561999999999998 25.565999999999999
3794 21.013999999999999 21.079999999999998
3795 64.978999999999999 19.77
3796 77.323999999999998 26.731999999999999
3797 21.873000000000001 25.335000000000001
3798 68.804000000000002 86.525000000000006
3799 71.328000000000003 69.477999999999994
3800 14.054 57.118000000000002
3801 83.641999999999996 33.055999999999997
3802 59.935000000000002 28.469000000000001
3803 34.116 13.218999999999999
3804 62.649000000000001 25.015000000000001
3805 19.486999999999998 67.543999999999997
3806 69.358000000000004 69.950000000000003
3807 69.525999999999996 68.209000000000003
3808 23.841000000000001 70.826999999999998
3809 28.036000000000001 63.475000000000001
3810 74.590000000000003 75.227000000000004
3811 61.101999999999997 87.314999999999998
3812 59.826000000000001 20.609000000000002
3813 26.152999999999999 57.651000000000003
3814 22.966000000000001 73.242000000000004
3815 22.152000000000001 27.244
3816 25.745000000000001 61.256999999999998
3817 14.210000000000001 70.063000000000002
3818 26.564 31.747
3819 70.233000000000004 77.412999999999997
3820 28.785 64.111000000000004
3821 74.242000000000004 11.896000000000001
3822 64.584000000000003 83.917000000000002
3823 35.289999999999999 31.843
3824 27.846 51.177999999999997
3825 75.450999999999993 73.606999999999999
3826 33.017000000000003 63.429000000000002
3827 70.855999999999995 19.736000000000001
3828 70.519999999999996 20.302
3829 60.764000000000003 45.332000000000001
3830 68.403000000000006 83.262
3831 23.414999999999999 22.419
3832 76.334999999999994 25.327999999999999
3833 62.456000000000003 94.965999999999994
3834 10.597 48.908000000000001
3835 72.605000000000004 80.296999999999997
3836 41.890999999999998 32.923000000000002
3837 41.261000000000003 18.582999999999998
3838 76.780000000000001 85.230999999999995
3839 66.679000000000002 91.671000000000006
3840 63.456000000000003 79.049999999999997
3841 60.883000000000003 75.608000000000004
3842 36.863 30.315999999999999
3843 62.308 78.212000000000003
3844 23.472000000000001 74.998000000000005
3845 62.680999999999997 37.909999999999997
3846 62.781999999999996 76.088999999999999
3847 32.747 26.126000000000001
3848 20.73 18.474
3849 23.181000000000001 68.021000000000001
3850 32.844999999999999 77.587000000000003
3851 55.783000000000001 30.422000000000001
3852 61.981000000000002 38.301000000000002
3853 29.856000000000002 52.548999999999999
3854 53.164999999999999 9.0289999999999999
3855 19.678999999999998 58.835999999999999
3856 26.292000000000002 73.429000000000002
3857 73.385000000000005 70.531999999999996
3858 23.655000000000001 66.340999999999994
3859 63.049999999999997 72.403000000000006
3860 47.319000000000003 10.853
3861 51.548000000000002 89.347999999999999
3862 73.310000000000002 75.573999999999998
3863 74.662000000000006 82.596999999999994
3864 69.096000000000004 77.271000000000001
3865 62.581000000000003 32.009
3866 34.097999999999999 18.907
3867 81.384 71.679000000000002
3868 59.665999999999997 26.318999999999999
3869 72.569000000000003 86.643000000000001
3870 37.811999999999998 30.134
3871 56.087000000000003 32.688000000000002
3872 15.648999999999999 33.618000000000002
3873 32.359999999999999 74.722999999999999
3874 33.725999999999999 27.829000000000001
3875 19.606000000000002 22.422000000000001
3876 32.789000000000001 30.366
3877 17.870999999999999 75.221000000000004
3878 87.414000000000001 20.648
3879 30.370000000000001 64.426000000000002
3880 26.481000000000002 56.057000000000002
3881 39.625999999999998 35.555
3882 61.037999999999997 81.644000000000005
3883 16.033000000000001 59.131
3884 65.778999999999996 31.446000000000002
3885 28.050999999999998 32.369999999999997
3886 19.629000000000001 53.728000000000002
3887 24.497 64.843999999999994
3888 21.510999999999999 70.748000000000005
3889 26.984000000000002 61.43
3890 32.618000000000002 96.015000000000001
3891 61.100000000000001 77.915000000000006
3892 66.652000000000001 27.204999999999998
3893 30.376999999999999 29.844999999999999
3894 76.774000000000001 67.623999999999995
3895 17.776 60.551000000000002
3896 28.789000000000001 73.988
3897 64.641999999999996 74.488
3898 60.228999999999999 92.724999999999994
3899 12.834 64.271000000000001
3900 74.981999999999999 81.022999999999996
3901 55.234000000000002 31.184999999999999
3902 53.179000000000002 22.43
3903 56.075000000000003 80.227000000000004
3904 35.219000000000001 17.709
3905 35.055 13.747999999999999
3906 23.585999999999999 30.503
3907 17.548999999999999 61.868000000000002
3908 27.370999999999999 42.052
3909 23.216000000000001 36.642000000000003
3910 60.281999999999996 56.366
3911 70.585999999999999 81.605000000000004
3912 75.269000000000005 74.921000000000006
3913 61.820999999999998 78.176000000000002
3914 18.57 57.615000000000002
3915 54.368000000000002 6.9900000000000002
3916 81.308000000000007 27.190000000000001
3917 32.838000000000001 25.495999999999999
3918 71.334999999999994 70.257999999999996
3919 76.465999999999994 52.408999999999999
3920 65.879999999999995 70.588999999999999
3921 61.335000000000001 85.459999999999994
3922 68.841999999999999 91.713999999999999
3923 82.305999999999997 89.441000000000003
3924 61.561999999999998 16.797999999999998
3925 19.024999999999999 59.539999999999999
3926 59.222999999999999 21.806000000000001
3927 37.408000000000001 71.903999999999996
3928 11.491 51.838000000000001
3929 62.268999999999998 24.492999999999999
3930 23.420999999999999 78.686000000000007
3931 75.730999999999995 79.268000000000001
3932 39.183 25.515000000000001
3933 27.018999999999998 31.437000000000001
3934 70.513999999999996 33.189999999999998
3935 32.726999999999997 67.716999999999999
3936 32.901000000000003 71.378
3937 20.094999999999999 36.023000000000003
3938 73.016999999999996 78.823999999999998
3939 40.383000000000003 65.983000000000004
3940 13.108000000000001 74.480000000000004
3941 28.157 15.052
3942 27.809000000000001 71.305000000000007
3943 21.369 63.869
3944 61.872 75.188999999999993
3945 59.314 78.572999999999993
3946 23.731000000000002 35.078000000000003
3947 87.438000000000002 28.224
3948 28.885000000000002 67.902000000000001
3949 61.335000000000001 29.079000000000001
3950 49.128 91.739000000000004
3951 65.113 26.239000000000001
3952 55.904000000000003 83.828000000000003
3953 35.716000000000001 74.914000000000001
3954 25.370000000000001 57.826999999999998
3955 27.152999999999999 72.406999999999996
3956 16.201000000000001 83.197999999999993
3957 32.139000000000003 29.576000000000001
3958 74.245000000000005 79.793000000000006
3959 60.161000000000001 85.811000000000007
3960 72.617000000000004 20.922999999999998
3961 69.844999999999999 33.578000000000003
3962 30.655000000000001 13.007999999999999
3963 59.784999999999997 70.947999999999993
3964 29.126000000000001 74.902000000000001
3965 33.270000000000003 32.457000000000001
3966 71.691000000000003 69.988
3967 73.968999999999994 30.047999999999998
3968 63.648000000000003 77.364000000000004
3969 65.244 26.489999999999998
3970 74.025000000000006 73.909000000000006
3971 58.859000000000002 26.780999999999999
3972 76.578999999999994 60.476999999999997
3973 56.192999999999998 22.600999999999999
3974 26.613 21.882000000000001
3975 32.938000000000002 28.085999999999999
3976 64.837000000000003 32.985999999999997
3977 62.735999999999997 76.521000000000001
3978 17.716000000000001 79.759
3979 47.585999999999999 22.084
3980 27.539999999999999 61.874000000000002
3981 24.361999999999998 71.242999999999995
3982 65.941999999999993 15.25
3983 17.356000000000002 71.287999999999997
3984 67.573999999999998 17.123000000000001
3985 32.350999999999999 27.945
3986 56.682000000000002 34.197000000000003
3987 34.737000000000002 34.646000000000001
3988 68.233000000000004 27.010000000000002
3989 82.590999999999994 19.452999999999999
3990 72.567999999999998 84.742999999999995
3991 18.658999999999999 82.881
3992 12.214 69.007000000000005
3993 69.299000000000007 76.271000000000001
3994 70.884 86.774000000000001
3995 39.058999999999997 24.626000000000001
3996 72.620000000000005 78.427999999999997
3997 16.427 35.619999999999997
3998 28.696000000000002 33.021000000000001
3999 66.572000000000003 77.984999999999999
4000 27.015999999999998 60.826999999999998
4001 26.071999999999999 16.381
4002 30.111999999999998 71.188000000000002
4003 28.824999999999999 39.360999999999997
4004 15.326000000000001 70.926000000000002
4005 69.903000000000006 47.854999999999997
4006 36.554000000000002 23.506
4007 60.835000000000001 73.495999999999995
4008 30.379000000000001 10.462
4009 32.311999999999998 16.914000000000001
4010 72.519000000000005 21.181999999999999
4011 36.591999999999999 60.082999999999998
4012 25.106999999999999 22.419
4013 59.622999999999998 77.837000000000003
4014 59.442 70.617000000000004
4015 71.387 17.126000000000001
4016 69.575000000000003 72.215999999999994
4017 82.073999999999998 81.206000000000003
4018 69.364000000000004 23.605
4019 26.818999999999999 58.027000000000001
4020 20.513000000000002 31.009
4021 55.561999999999998 89.325000000000003
4022 23.23 58.445999999999998
4023 68.766000000000005 27.693000000000001
4024 17.789999999999999 63.728999999999999
4025 25.738 74.379000000000005
4026 35.619999999999997 68.221999999999994
4027 71.084999999999994 24.824999999999999
4028 14.442 56.341999999999999
4029 30.257999999999999 36.837000000000003
4030 75.613 30.152000000000001
4031 70.965000000000003 35.033999999999999
4032 63.354999999999997 84.929000000000002
4033 18.443999999999999 57.841999999999999
4034 14.552 33.241
4035 35.252000000000002 59.374000000000002
4036 26.988 74.504999999999995
4037 65.876000000000005 84.600999999999999
4038 9.3390000000000004 25.286999999999999
4039 69.266000000000005 74.140000000000001
4040 57.798000000000002 64.444999999999993
4041 59.259999999999998 21.545999999999999
4042 27.791 35.371000000000002
4043 67.284999999999997 6.4589999999999996
4044 39.670999999999999 33.134999999999998
4045 59.609999999999999 81.628
4046 55.942 77.301000000000002
4047 57.796999999999997 25.898
4048 63.956000000000003 23.782
4049 62.405999999999999 26.305
4050 65.427999999999997 71.488
4051 11.944000000000001 66.584999999999994
4052 63.988999999999997 74.832999999999998
4053 38.497 40.656999999999996
4054 40.838999999999999 15.798
4055 21.038 28.751000000000001
4056 67.444999999999993 24.713000000000001
4057 33.923000000000002 69.173000000000002
4058 39.75 34.276000000000003
4059 61.151000000000003 9.5760000000000005
4060 22.366 27.303999999999998
4061 17.213999999999999 63.563000000000002
4062 57.537999999999997 36.091000000000001
4063 20.785 70.293000000000006
4064 61.548000000000002 76.212000000000003
4065 63.183 70.436999999999998
4066 27.888000000000002 26.841999999999999
4067 23.597000000000001 67.469999999999999
4068 22.916 21.382999999999999
4069 19.422999999999998 72.727000000000004
4070 32.682000000000002 76.238
4071 30.789999999999999 36.271999999999998
4072 1.1970000000000001 57.398000000000003
4073 37.134 22.222000000000001
4074 64.706999999999994 17.954999999999998
4075 69.974000000000004 76.799999999999997
4076 23.454000000000001 79.879000000000005
4077 59.893999999999998 38.015999999999998
4078 64.834000000000003 24.120000000000001
4079 59.529000000000003 41.475999999999999
4080 77.981999999999999 39.503999999999998
4081 25.324999999999999 61.093000000000004
4082 72.713999999999999 28.309000000000001
4083 69.882999999999996 64.480999999999995
4084 21.395 82.194999999999993
4085 69.888000000000005 30.259
4086 21.571000000000002 65.980999999999995
4087 67.807000000000002 59.670999999999999
4088 8.7720000000000002 64.085999999999999
4089 31.748999999999999 22.109000000000002
4090 55.238 83.838999999999999
4091 27.75 18.251000000000001
4092 67.045000000000002 80.492999999999995
4093 16.155000000000001 65.819999999999993
4094 57.587000000000003 79.546999999999997
4095 28.77 75.566000000000003
4096 70.213999999999999 82.626000000000005
4097 30.029 69.667000000000002
4098 62.174999999999997 28.390000000000001
4099 21.657 74.655000000000001
4100 27.623999999999999 73.173000000000002
4101 39.768000000000001 20.367000000000001
4102 22.376999999999999 56.701000000000001
4103 87.843999999999994 71.668999999999997
4104 63.192999999999998 77.463999999999999
4105 18.895 82.878
4106 18.972000000000001 72.858999999999995
4107 26.619 61.603000000000002
4108 66.549000000000007 34.179000000000002
4109 28.533999999999999 70.638999999999996
4110 26.311 75.016000000000005
4111 68.188999999999993 76.450999999999993
4112 81.593999999999994 31.620000000000001
4113 32.533000000000001 20.491
4114 41.706000000000003 33.578000000000003
4115 61.924999999999997 39.148000000000003
4116 27.568999999999999 55.274999999999999
4117 71.132999999999996 34.731999999999999
4118 19.829999999999998 68.558999999999997
4119 88.593000000000004 82.924999999999997
4120 27.117000000000001 32.539999999999999
4121 29.018000000000001 26.931999999999999
4122 70.843000000000004 74.325999999999993
4123 66.046999999999997 86.981999999999999
4124 62.506999999999998 25.527999999999999
4125 60.322000000000003 61.075000000000003
4126 30.387 73.510999999999996
4127 29.248999999999999 22.474
4128 62.340000000000003 74.325999999999993
4129 60.686999999999998 33.597999999999999
4130 38.031999999999996 13.414999999999999
4131 78.561000000000007 24.306000000000001
4132 17.423999999999999 70.739000000000004
4133 27.449000000000002 18.625
4134 64.992999999999995 71.840999999999994
4135 36.744999999999997 23.783999999999999
4136 34.890999999999998 72.170000000000002
4137 41.125999999999998 20.718
4138 66.119 78.497
4139 22.911999999999999 66.126000000000005
4140 12.84 69.400000000000006
4141 45.298000000000002 31.797999999999998
4142 52.783000000000001 27.344999999999999
4143 31.786999999999999 21.609000000000002
4144 28.193000000000001 50.790999999999997
4145 56.747 14.08
4146 61.670000000000002 9.2469999999999999
4147 51.146999999999998 15.635999999999999
4148 62.838000000000001 30.068999999999999
4149 64.289000000000001 28.937999999999999
4150 69.096000000000004 73.405000000000001
4151 20.898 64.855999999999995
4152 33.031999999999996 32.569000000000003
4153 61.267000000000003 69.590000000000003
4154 76.572999999999993 31.431000000000001
4155 56.884999999999998 18.466000000000001
4156 66.231999999999999 25.225999999999999
4157 69.744 85.367000000000004
4158 64.329999999999998 84.739999999999995
4159 73.177999999999997 60.433
4160 72.596999999999994 75.518000000000001
4161 29.478999999999999 29.629999999999999
4162 70.415999999999997 35.284999999999997
4163 62.843000000000004 25.096
4164 43.073999999999998 23.331
4165 24.690999999999999 51.488
4166 69.599999999999994 29.157
4167 80.938000000000002 70.301000000000002
4168 31.387 32.515000000000001
4169 67.341999999999999 30.538
4170 75.917000000000002 28.562000000000001
4171 17.026 60.962000000000003
4172 20.925999999999998 28.428000000000001
4173 75.296999999999997 76.780000000000001
4174 74.156000000000006 35.427
4175 22.695 70.784999999999997
4176 64.608999999999995 80.542000000000002
4177 33.188000000000002 81.459000000000003
4178 55.935000000000002 91.572000000000003
4179 66.597999999999999 77.753
4180 32.886000000000003 10.416
4181 65.852000000000004 91.558999999999997
4182 67.957999999999998 17.370000000000001
4183 31.010000000000002 33.93
4184 67.295000000000002 30.59
4185 32.372 60.826000000000001
4186 55.420999999999999 75.635000000000005
4187 17.818999999999999 67.256
4188 66.537000000000006 69.189999999999998
4189 6.0869999999999997 62.218000000000004
4190 67.718999999999994 30.707000000000001
4191 35.258000000000003 22.928999999999998
4192 78.962000000000003 75.093000000000004
4193 59.956000000000003 73.938000000000002
4194 66.257999999999996 62.954000000000001
4195 58.652000000000001 27.152000000000001
4196 58.116 73.638999999999996
4197 39.076000000000001 74.417000000000002
4198 58.802 82.566000000000003
4199 77.543000000000006 22.068000000000001
4200 39.655999999999999 9.2059999999999995
4201 23.047000000000001 76.870000000000005
4202 21.908000000000001 71.254999999999995
4203 35.052999999999997 29.736999999999998
4204 27.797000000000001 14.843
4205 74.010999999999996 28.135000000000002
4206 83.944000000000003 74.125
4207 5.7830000000000004 62.695999999999998
4208 15.135999999999999 56.456000000000003
4209 19.968 52.509999999999998
4210 31.731999999999999 31.640999999999998
4211 62.427999999999997 18.332000000000001
4212 39.018000000000001 45.671999999999997
4213 66.244 81.680000000000007
4214 14.045999999999999 57.804000000000002
4215 70.608000000000004 41.210000000000001
4216 63.725999999999999 26.917999999999999
4217 23.228999999999999 52.228000000000002
4218 61.750999999999998 23.821999999999999
4219 54.515999999999998 14.629
4220 32.442 77.061000000000007
4221 73.579999999999998 61.756
4222 15.679 78.113
4223 60.631 68.167000000000002
4224 59.192 26.75
4225 65.926000000000002 11.446999999999999
4226 62.350000000000001 68.012
4227 59.015000000000001 68.382999999999996
4228 13.999000000000001 22.972000000000001
4229 73.072000000000003 81.828000000000003
4230 57.500999999999998 67.988
4231 33.689999999999998 63.771999999999998
4232 18.952000000000002 21.780999999999999
4233 59.753999999999998 77.378
4234 55.756 17.738
4235 66.236999999999995 74.879000000000005
4236 14.058999999999999 74.972999999999999
4237 64.968999999999994 32.076000000000001
4238 84.828000000000003 85.349999999999994
4239 44.866999999999997 20.492999999999999
4240 56.030999999999999 29.975999999999999
4241 31.616 69.272999999999996
4242 32.173999999999999 35.176000000000002
4243 55.82 70.450000000000003
4244 74.471999999999994 77.691999999999993
4245 58.859000000000002 26.033999999999999
4246 64.679000000000002 73.790999999999997
4247 60.423000000000002 78.028000000000006
4248 70.293999999999997 34.399999999999999
4249 74.759 75.060000000000002
4250 72.147999999999996 76.875
4251 69.554000000000002 35.706000000000003
4252 30.745000000000001 61.893000000000001
4253 84.635999999999996 84.245999999999995
4254 38.905000000000001 24.837
4255 8.9009999999999998 71.155000000000001
4256 62.152999999999999 30.334
4257 41.859999999999999 21.27
4258 27.289999999999999 72.634
4259 23.376000000000001 66.307000000000002
4260 20.359000000000002 61.360999999999997
4261 69.100999999999999 76.888000000000005
4262 37.917999999999999 12.798999999999999
4263 34.829000000000001 18.925999999999998
4264 62.302999999999997 23.841999999999999
4265 66.055000000000007 29.797000000000001
4266 68.308000000000007 21.756
4267 29.481000000000002 62.915999999999997
4268 70.994 40.104999999999997
4269 37.021000000000001 21.885999999999999
4270 59.542000000000002 28.678000000000001
4271 15.867000000000001 52.668999999999997
4272 72.531000000000006 28.616
4273 63.075000000000003 62.575000000000003
4274 29.536999999999999 10.654999999999999
4275 63.503999999999998 30.577000000000002
4276 59.256999999999998 14.51
4277 24.440999999999999 59.578000000000003
4278 68.406000000000006 78.724999999999994
4279 46.411999999999999 40.917999999999999
4280 18.904 22.219999999999999
4281 71.078999999999994 82.841999999999999
4282 67.647999999999996 20.559999999999999
4283 18.757999999999999 73.519999999999996
4284 62.287999999999997 31.646999999999998
4285 58.813000000000002 72
4286 20.428999999999998 67.861000000000004
4287 34.573999999999998 23.004999999999999
4288 41.652999999999999 25.41
4289 37.988 27.273
4290 19.963000000000001 25.181999999999999
4291 44.469999999999999 25.280000000000001
4292 59.615000000000002 70.983000000000004
4293 55.450000000000003 84.334999999999994
4294 75.394000000000005 76.780000000000001
4295 75.924000000000007 11.419
4296 17.524999999999999 29.373999999999999
4297 58.683 69.738
4298 55.338000000000001 73.953999999999994
4299 69.784999999999997 80.643000000000001
4300 65.853999999999999 91.194000000000003
4301 55.875 13.962
4302 11.429 68.438000000000002
4303 69.281000000000006 83.713999999999999
4304 30.814 25.366
4305 24.884 33.731000000000002
4306 41.302999999999997 33.106999999999999
4307 20.425999999999998 76.314999999999998
4308 24.693999999999999 70.546000000000006
4309 68.174999999999997 73.763999999999996
4310 67.239999999999995 77.039000000000001
4311 12.359999999999999 25.754999999999999
4312 26.385000000000002 67.853999999999999
4313 30.117999999999999 73.260000000000005
4314 71.320999999999998 32.518999999999998
4315 50.752000000000002 24.706
4316 59.037999999999997 81.140000000000001
4317 13.715999999999999 65.787999999999997
4318 42.915999999999997 21.683
4319 29.420000000000002 73.983999999999995
4320 40.256999999999998 17.646000000000001
4321 6.7919999999999998 57.761000000000003
4322 70.048000000000002 67.352999999999994
4323 26.649000000000001 71.066999999999993
4324 69.963999999999999 82.802000000000007
4325 77.221000000000004 21.785
4326 73.111999999999995 7.9409999999999998
4327 66.986999999999995 28.513999999999999
4328 72.718000000000004 82.001000000000005
4329 63.07 77.659999999999997
4330 19.265999999999998 39.615000000000002
4331 56.651000000000003 82.828999999999994
4332 74.027000000000001 83.328000000000003
4333 77.653999999999996 33.009
4334 39.601999999999997 11.42
4335 51.646999999999998 78.143000000000001
4336 60.718000000000004 34.210999999999999
4337 37.978999999999999 16.475999999999999
4338 58.884 81.349000000000004
4339 41.491999999999997 26.626999999999999
4340 77.034999999999997 24.091000000000001
4341 63.216000000000001 68.272000000000006
4342 68.587000000000003 46.975000000000001
4343 36.881999999999998 38.844000000000001
4344 17.507999999999999 9.798
4345 20.029 35.206000000000003
4346 68.932000000000002 74.224000000000004
4347 79.787000000000006 74.938999999999993
4348 62.908000000000001 37.945
4349 25.114000000000001 69.218999999999994
4350 27.199999999999999 68.188999999999993
4351 30.715 23.920000000000002
4352 33.761000000000003 32.256
4353 17.071000000000002 65.576999999999998
4354 56.140999999999998 19.187999999999999
4355 17.114000000000001 67.810000000000002
4356 32.390000000000001 23.896999999999998
4357 62.097999999999999 86.820999999999998
4358 23.460999999999999 28.998000000000001
4359 26.015000000000001 28.126000000000001
4360 25.504999999999999 50.707999999999998
4361 29.774000000000001 56.847999999999999
4362 22.902000000000001 19.349
4363 74.004999999999995 77.372
4364 64.686999999999998 67.311000000000007
4365 27.184999999999999 21.742999999999999
4366 49.789999999999999 29.108000000000001
4367 61.006999999999998 28.512
4368 50.5 83.694999999999993
4369 34.954000000000001 17.515000000000001
4370 27.32 27.837
4371 34.212000000000003 26.943000000000001
4372 29.821999999999999 84.412000000000006
4373 66.481999999999999 78.609999999999999
4374 24.762 17.388000000000002
4375 70.406999999999996 24.969999999999999
4376 20.574000000000002 57.703000000000003
4377 82.977000000000004 75.722999999999999
4378 71.003 92.998999999999995
4379 33.140000000000001 17.446999999999999
4380 55.915999999999997 63.941000000000003
4381 69.006 89.662999999999997
4382 60.125999999999998 24.541
4383 26.164000000000001 72.135000000000005
4384 14.032 56.572000000000003
4385 52.447000000000003 35.831000000000003
4386 54.164999999999999 83.323999999999998
4387 25.736999999999998 39.645000000000003
4388 30.977 30.68
4389 58.289999999999999 28.024000000000001
4390 24.661999999999999 80.155000000000001
4391 81.510999999999996 81.524000000000001
4392 35.447000000000003 29.071999999999999
4393 70.795000000000002 82.188000000000002
4394 23.981000000000002 72.543000000000006
4395 72.031999999999996 33.493000000000002
4396 12.93 82.709999999999994
4397 33.405000000000001 31.494
4398 26.962 65.179000000000002
4399 54.843000000000004 18.111999999999998
4400 25.119 17.341999999999999
4401 20.736000000000001 57.957000000000001
4402 26.462 41.761000000000003
4403 62.223999999999997 28.693000000000001
4404 11.714 66.647000000000006
4405 13.384 20.087
4406 28.007000000000001 26.603999999999999
4407 33.607999999999997 26.459
4408 26.974 73.712000000000003
4409 44.225000000000001 21.974
4410 65.242999999999995 27.812999999999999
4411 33.726999999999997 34.502000000000002
4412 27.978999999999999 61.409999999999997
4413 62.994999999999997 16.158999999999999
4414 37.923999999999999 28.349
4415 68.263999999999996 72.090000000000003
4416 61.774999999999999 65.831999999999994
4417 66.341999999999999 31.239000000000001
4418 81.420000000000002 28.747
4419 32.756999999999998 24.756
4420 19.117999999999999 60.348999999999997
4421 77.328999999999994 25.931000000000001
4422 21.861000000000001 28.541
4423 57.795000000000002 28.686
4424 70.483999999999995 34.341000000000001
4425 72.971999999999994 76.856999999999999
4426 74.959999999999994 82.811999999999998
4427 66.227000000000004 20.318000000000001
4428 17.907 62.344999999999999
4429 74.581999999999994 17.469999999999999
4430 56.241 26.843
4431 59.686999999999998 38.444000000000003
4432 78.153000000000006 18.677
4433 24.390000000000001 55.844000000000001
4434 23.913 66.417000000000002
4435 60.994999999999997 68.786000000000001
4436 58.780000000000001 73.079999999999998
4437 73.885000000000005 66.034999999999997
4438 62.658000000000001 19.202999999999999
4439 49.993000000000002 25.747
4440 67.894999999999996 34.125
4441 67.753 25.727
4442 22.565999999999999 60.115000000000002
4443 65.019000000000005 85.971999999999994
4444 66.983000000000004 85.516999999999996
4445 41.310000000000002 23.210000000000001
4446 14.291 76.328000000000003
4447 45.466000000000001 39.878999999999998
4448 38.201000000000001 8.0099999999999998
4449 63.819000000000003 82.935000000000002
4450 55.305999999999997 18.539000000000001
4451 20.318999999999999 65.376000000000005
4452 72.611000000000004 76.858999999999995
4453 38.32 36.322000000000003
4454 75.022999999999996 81.293000000000006
4455 25.727 58.545000000000002
4456 30.408000000000001 26.899999999999999
4457 78.495999999999995 70.453999999999994
4458 43.392000000000003 30.001999999999999
4459 50.496000000000002 32.256
4460 24.709 70.263999999999996
4461 22.478999999999999 64.456000000000003
4462 59.189999999999998 81.587000000000003
4463 21.52 13.9
4464 57.323 17.077999999999999
4465 30.847000000000001 40.860999999999997
4466 37.393999999999998 81.119
4467 71.311000000000007 92.311999999999998
4468 10.641 69.599000000000004
4469 71.552000000000007 80.745000000000005
4470 12.539 56.274999999999999
4471 18.167000000000002 61.774999999999999
4472 37.640999999999998 17.318999999999999
4473 19.331 22.594000000000001
4474 64.033000000000001 20.111000000000001
4475 30.603000000000002 19.622
4476 55.953000000000003 19.541
4477 58.350999999999999 27.933
4478 70.560000000000002 71.296000000000006
4479 76.471000000000004 82.099000000000004
4480 64.189999999999998 82.111999999999995
4481 72.634 29.552
4482 29.800000000000001 56.289999999999999
4483 76.174000000000007 65.278000000000006
4484 76.700000000000003 68.394999999999996
4485 30.513999999999999 23.042999999999999
4486 68.634 72.593000000000004
4487 82.828999999999994 21.452000000000002
4488 31.073 30.076000000000001
4489 65.843000000000004 81.584999999999994
4490 25.077000000000002 67.194999999999993
4491 16.638999999999999 61.468000000000004
4492 60.289999999999999 27.954000000000001
4493 64.661000000000001 35.895000000000003
4494 75.072999999999993 80.370999999999995
4495 61.481000000000002 66.316999999999993
4496 26.937999999999999 33.670000000000002
4497 35.177 43.981999999999999
4498 66.277000000000001 92.004000000000005
4499 35.811 24.273
4500 71.046000000000006 74.506
4501 20.542000000000002 73.858000000000004
4502 29.895 62.767000000000003
4503 20.213999999999999 57.557000000000002
4504 63.615000000000002 72.254000000000005
4505 25.451000000000001 66.962000000000003
4506 30.341000000000001 30.927
4507 23.655999999999999 60.368000000000002
4508 8.9410000000000007 50.442999999999998
4509 39.442999999999998 22.331
4510 64.498999999999995 24.792000000000002
4511 68.875 76.706000000000003
4512 19.289000000000001 61.133000000000003
4513 69.671999999999997 38.798000000000002
4514 20.701000000000001 67.120999999999995
4515 56.078000000000003 20.143000000000001
4516 24.306999999999999 32.113999999999997
4517 31.064 68.823999999999998
4518 19.777999999999999 68.698999999999998
4519 28.777999999999999 30.213999999999999
4520 61.348999999999997 25.390999999999998
4521 23.416 65.469999999999999
4522 22.739000000000001 58.055
4523 68.787999999999997 58.790999999999997
4524 61.085000000000001 31.518999999999998
4525 61.582999999999998 27.094999999999999
4526 23.823 61.758000000000003
4527 16.091000000000001 61.682000000000002
4528 56.499000000000002 58.770000000000003
4529 56.625999999999998 22.292000000000002
4530 62.902000000000001 8.8279999999999994
4531 41.776000000000003 20.427
4532 25.154 22.768999999999998
4533 43.402999999999999 33.695
4534 79.084000000000003 78.265000000000001
4535 39.637999999999998 16.634
4536 26.143999999999998 29.765999999999998
4537 75.403000000000006 90.007999999999996
4538 28.997 68.760999999999996
4539 63.640000000000001 35.387
4540 24.327000000000002 60.182000000000002
4541 42.186999999999998 17.568000000000001
4542 61.923000000000002 20.527999999999999
4543 15.43 72.215000000000003
4544 21.094000000000001 62.164999999999999
4545 62.779000000000003 70.628
4546 68.512 78.765000000000001
4547 60.515000000000001 22.626999999999999
4548 28.82 76.736000000000004
4549 60.430999999999997 23.276
4550 67.590000000000003 84.742000000000004
4551 31.251999999999999 37.070999999999998
4552 25.489000000000001 26.701000000000001
4553 55.069000000000003 25.102
4554 29.994 32.970999999999997
4555 67.170000000000002 39.612000000000002
4556 70.951999999999998 10.76
4557 35.088999999999999 33.240000000000002
4558 78.031000000000006 82.715000000000003
4559 84.367000000000004 24.823
4560 24.824000000000002 26.247
4561 62.311999999999998 77.525000000000006
4562 14.907999999999999 69.992000000000004
4563 10.798 31.085999999999999
4564 31.021000000000001 64.418999999999997
4565 71.921000000000006 85.064999999999998
4566 66.814999999999998 66.094999999999999
4567 64.584000000000003 21.972000000000001
4568 24.521000000000001 38.887
4569 72.864999999999995 92.114999999999995
4570 17.803999999999998 37.006
4571 27.803000000000001 31.068000000000001
4572 32.130000000000003 29.856999999999999
4573 49.997 34.863
4574 57.683 29.190999999999999
4575 72.674000000000007 73.322999999999993
4576 36.356999999999999 33.222999999999999
4577 54.292000000000002 23.193999999999999
4578 25.001000000000001 19.506
4579 65.626000000000005 36.625999999999998
4580 31.757999999999999 72.007999999999996
4581 19.379000000000001 79.947000000000003
4582 65.003 31.856000000000002
4583 63.496000000000002 26.856999999999999
4584 35.506 17.376999999999999
4585 31.140000000000001 64.296999999999997
4586 72.329999999999998 76.385000000000005
4587 57.872999999999998 75.445999999999998
4588 19.617000000000001 41.506999999999998
4589 15.526999999999999 66.808999999999997
4590 60.203000000000003 29.434999999999999
4591 69.593000000000004 64.171000000000006
4592 70.176000000000002 84.176000000000002
4593 29.396000000000001 29.934000000000001
4594 79.474999999999994 28.247
4595 61.920999999999999 65.994
4596 63.155999999999999 22.488
4597 32.914999999999999 62.804000000000002
4598 77.980999999999995 74.296000000000006
4599 20.041 54.109000000000002
4600 15.067 70.694999999999993
4601 19.919 70.843999999999994
4602 23.427 68.566999999999993
4603 15.698 71.552000000000007
4604 22.318000000000001 8.3339999999999996
4605 64.787000000000006 84.691999999999993
4606 58.558 42.012
4607 76.780000000000001 14.384
4608 71.277000000000001 34.951999999999998
4609 12.849 66.695999999999998
4610 67.608000000000004 33.768999999999998
4611 27.800000000000001 31.058
4612 61.697000000000003 22.815000000000001
4613 80.575999999999993 17.216999999999999
4614 75.962999999999994 71.477999999999994
4615 13.608000000000001 47.128999999999998
4616 42.168999999999997 35.740000000000002
4617 33.137 29.762
4618 65.671999999999997 21.449000000000002
4619 5.5300000000000002 66.915000000000006
4620 29.030000000000001 34.116999999999997
4621 30.189 34.973999999999997
4622 39.462000000000003 36.212000000000003
4623 11.146000000000001 66.856999999999999
4624 31.402999999999999 53.207999999999998
4625 71.480999999999995 79.588999999999999
4626 67.066000000000003 24.193999999999999
4627 64.436000000000007 33.670999999999999
4628 43.088000000000001 23.103000000000002
4629 17.488 75.322999999999993
4630 23.300999999999998 30.239000000000001
4631 72.691000000000003 81.186999999999998
4632 9.0220000000000002 74.444999999999993
4633 40.384 28.664000000000001
4634 22.818999999999999 73.948999999999998
4635 72.674000000000007 83.933000000000007
4636 63.212000000000003 85.959999999999994
4637 62.877000000000002 77.296999999999997
4638 22.846 61.917000000000002
4639 74.969999999999999 31.381
4640 25.466000000000001 62.302999999999997
4641 26.201000000000001 60.290999999999997
4642 35.396999999999998 56.490000000000002
4643 61.469999999999999 18.867999999999999
4644 41.526000000000003 20.469000000000001
4645 32.710000000000001 50.021000000000001
4646 35.168999999999997 67.141999999999996
4647 22.436 59.021999999999998
4648 78.875 81.412999999999997
4649 22.231999999999999 31.541
4650 29.219999999999999 66.890000000000001
4651 58.405000000000001 45.445
4652 21.280999999999999 56.582000000000001
4653 32.491999999999997 38.667999999999999
4654 5.2850000000000001 72.436000000000007
4655 62.396000000000001 39.149000000000001
4656 32.064999999999998 27.513000000000002
4657 49.012999999999998 20.545999999999999
4658 22.353000000000002 63.206000000000003
4659 65.307000000000002 26.745000000000001
4660 15.4 24.359999999999999
4661 30.509 36.472000000000001
4662 55.93 76.847999999999999
4663 38.658000000000001 34.490000000000002
4664 50.124000000000002 25.422000000000001
4665 29.515999999999998 24.300000000000001
4666 29.821999999999999 13.92
4667 31.446000000000002 26.291
4668 69.655000000000001 40.856999999999999
4669 45.600999999999999 35.515999999999998
4670 22.632999999999999 32.375999999999998
4671 78.453999999999994 84.516000000000005
4672 59.488 28.521000000000001
4673 56.881 86.167000000000002
4674 66.698999999999998 18.119
4675 12.875999999999999 77.078999999999994
4676 55.683999999999997 96.766999999999996
4677 19.811 65.061000000000007
4678 23.562999999999999 43.667000000000002
4679 25.599 58.813000000000002
4680 65.478999999999999 75.126000000000005
4681 30.001999999999999 65.888999999999996
4682 19.699000000000002 67.640000000000001
4683 74.426000000000002 40.536000000000001
4684 79.340999999999994 78.262
4685 31.974 58.097000000000001
4686 71.730000000000004 83.688999999999993
4687 65.567999999999998 20.472999999999999
4688 70.567999999999998 65.364000000000004
4689 14.853 68.522999999999996
4690 5.9530000000000003 58.100000000000001
4691 33.527999999999999 29.893999999999998
4692 16.222999999999999 21.649000000000001
4693 61.238 32.540999999999997
4694 76.709999999999994 66.557000000000002
4695 69.603999999999999 35.770000000000003
4696 65.290999999999997 10.08
4697 17.545999999999999 68.546000000000006
4698 36.167999999999999 28.858000000000001
4699 71.185000000000002 22.571000000000002
4700 1.907 66.116
4701 69.671000000000006 37
4702 84.114999999999995 24.471
4703 64.186000000000007 24.940000000000001
4704 29.582000000000001 37.118000000000002
4705 61.523000000000003 84.531000000000006
4706 23.468 81.049000000000007
4707 65.772000000000006 19.126999999999999
4708 80.155000000000001 65.299000000000007
4709 71.340999999999994 74.939999999999998
4710 60.612000000000002 71.587999999999994
4711 64.361000000000004 18.420999999999999
4712 37.790999999999997 64.731999999999999
4713 56.054000000000002 28.640999999999998
4714 25.085999999999999 28.791
4715 58.944000000000003 38.976999999999997
4716 68.135000000000005 79.972999999999999
4717 20.922000000000001 20.318999999999999
4718 29.196000000000002 12.218999999999999
4719 37.317 39.369
4720 78.915000000000006 82.369
4721 43.055 30.257000000000001
4722 31.356000000000002 27.989999999999998
4723 60.521000000000001 24.204999999999998
4724 32.335999999999999 81.253
4725 33.710999999999999 26.157
4726 64.274000000000001 20.067
4727 69.185000000000002 74.296999999999997
4728 31.085999999999999 25.611000000000001
4729 77.831999999999994 28.986000000000001
4730 36.195999999999998 28.224
4731 28.087 63.435000000000002
4732 21.355 74.828000000000003
4733 57.692 10.654999999999999
4734 34.682000000000002 61.755000000000003
4735 21.928000000000001 26.629000000000001
4736 80.875 23.701000000000001
4737 50.033999999999999 36.267000000000003
4738 73.716999999999999 38.189
4739 33.600000000000001 30.777999999999999
4740 26.367000000000001 79.444999999999993
4741 41.762 24.038
4742 65.081000000000003 24.693000000000001
4743 64.123999999999995 25.765000000000001
4744 34.18 36.252000000000002
4745 24.088000000000001 65.132000000000005
4746 35.265999999999998 38.237000000000002
4747 23.998999999999999 67.453000000000003
4748 67.620999999999995 11.31
4749 67.647000000000006 29.131
4750 25.141999999999999 29.228000000000002
4751 13.474 64.694999999999993
4752 27.484000000000002 23.004999999999999
4753 22.658999999999999 65.691999999999993
4754 57.990000000000002 18.116
4755 55.054000000000002 80.605000000000004
4756 20.091000000000001 64.847999999999999
4757 66.271000000000001 79.944000000000003
4758 60.863 22.774999999999999
4759 68.028999999999996 79.385999999999996
4760 66.722999999999999 18.699000000000002
4761 17.649999999999999 30.661999999999999
4762 35.625999999999998 26.978000000000002
4763 33.484999999999999 26.283000000000001
4764 21.155999999999999 26.138999999999999
4765 15.500999999999999 76.900000000000006
4766 50.579000000000001 29.696000000000002
4767 33.756 25.346
4768 68.072000000000003 25.513999999999999
4769 12.281000000000001 19.343
4770 68.251999999999995 83.501999999999995
4771 69.921999999999997 74.280000000000001
4772 75.474000000000004 75.492999999999995
4773 24.033999999999999 68.924000000000007
4774 70.444000000000003 16.654
4775 26.981000000000002 66.584000000000003
4776 63.951000000000001 32.728999999999999
4777 20.577000000000002 80.548000000000002
4778 22.911000000000001 77.391999999999996
4779 63.101999999999997 31.966999999999999
4780 26.91 63.128
4781 69.846000000000004 85.772000000000006
4782 60.698999999999998 69.022000000000006
4783 27.925000000000001 39.841000000000001
4784 55.375999999999998 66.018000000000001
4785 44.107999999999997 26.460999999999999
4786 20.175999999999998 35.415999999999997
4787 66.5 26.716999999999999
4788 33.884 40.229999999999997
4789 64.798000000000002 25.748000000000001
4790 19.798999999999999 58.584000000000003
4791 30.321000000000002 74.683000000000007
4792 80.722999999999999 18.137
4793 27.649000000000001 63.750999999999998
4794 68.436999999999998 71.338999999999999
4795 67.471000000000004 77.558999999999997
4796 57.341999999999999 76.843999999999994
4797 13.683999999999999 56.755000000000003
4798 35.268000000000001 35.639000000000003
4799 9.5619999999999994 60.975999999999999
4800 16.789000000000001 70.831000000000003
4801 64.075000000000003 76.551000000000002
4802 23.129999999999999 59.841000000000001
4803 63.234000000000002 71.951999999999998
4804 26.52 65.915000000000006
4805 24.739999999999998 18.747
4806 66.177999999999997 16.219000000000001
4807 31.324999999999999 70.028000000000006
4808 17.239999999999998 79.597999999999999
4809 29.289999999999999 25.196999999999999
4810 15.163 34.814
4811 76.019000000000005 29.914999999999999
4812 27.407 53.783000000000001
4813 20.672000000000001 23.135999999999999
4814 85.539000000000001 73.587999999999994
4815 60.975999999999999 22.949999999999999
4816 25.466999999999999 71.394999999999996
4817 24.663 68.861000000000004
4818 17.475999999999999 24.861000000000001
4819 30.817 80.765000000000001
4820 32.683999999999997 16.620999999999999
4821 58.265000000000001 87.736999999999995
4822 8.5879999999999992 68.382999999999996
4823 66.117999999999995 72.269000000000005
4824 25.140000000000001 67.617000000000004
4825 37.923999999999999 32.344999999999999
4826 62.579000000000001 30.402999999999999
4827 62.088999999999999 24.597999999999999
4828 71.045000000000002 71.442999999999998
4829 26.896999999999998 70.930000000000007
4830 31.048999999999999 79.956000000000003
4831 69.831999999999994 20.456
4832 71.870999999999995 19.045000000000002
4833 20.366 58.654000000000003
4834 9.9480000000000004 75.120000000000005
4835 53.569000000000003 18.219000000000001
4836 74.162000000000006 84.807000000000002
4837 77.676000000000002 71.938000000000002
4838 26.853999999999999 19.359000000000002
4839 27.213999999999999 59.676000000000002
4840 47.018999999999998 29.623999999999999
4841 25.977 24.024000000000001
4842 25.015000000000001 34.613999999999997
4843 54.356000000000002 77.183000000000007
4844 68.506 25.617999999999999
4845 64.872 24.832999999999998
4846 42.277000000000001 17.364999999999998
4847 26.951000000000001 72.685000000000002
4848 31.359000000000002 68.968999999999994
4849 34.423000000000002 28.055
4850 71.805000000000007 88.578000000000003
4851 66.388000000000005 90.316999999999993
4852 73.843999999999994 74.718999999999994
4853 56.112000000000002 20.209
4854 40.761000000000003 16.526
4855 54.243000000000002 34.979999999999997
4856 53.405000000000001 65.486999999999995
4857 31.641999999999999 32.686
4858 61.595999999999997 18.760000000000002
4859 63.529000000000003 79.233999999999995
4860 70.403000000000006 33.774000000000001
4861 74.012 72.629000000000005
4862 54.362000000000002 21.603999999999999
4863 17.745999999999999 61.027999999999999
4864 71.534999999999997 20.23
4865 31.106000000000002 57.256999999999998
4866 22.802 39.219000000000001
4867 27.286999999999999 19.550000000000001
4868 20.292000000000002 70.680000000000007
4869 73.703000000000003 77.841999999999999
4870 19.047000000000001 60.213999999999999
4871 23.675000000000001 73.260999999999996
4872 57.423999999999999 76.766000000000005
4873 23.129000000000001 24.149000000000001
4874 36.057000000000002 38.389000000000003
4875 65.504000000000005 31.390999999999998
4876 4.9950000000000001 80.700000000000003
4877 38.372999999999998 62.860999999999997
4878 31.864999999999998 29.256
4879 24.318999999999999 67.597999999999999
4880 33.534999999999997 63.930999999999997
4881 0.51700000000000002 58.570999999999998
4882 48.912999999999997 26.507999999999999
4883 60.283999999999999 82.727000000000004
4884 8.3339999999999996 57.210000000000001
4885 38.530000000000001 21.971
4886 71.478999999999999 82.040000000000006
4887 67.366 82.242999999999995
4888 27.937999999999999 78.941999999999993
4889 82.045000000000002 65.968000000000004
4890 29.228999999999999 21.808
4891 9.0229999999999997 64.051000000000002
4892 32.409999999999997 30.059999999999999
4893 5.827 80.314999999999998
4894 62.439999999999998 35.982999999999997
4895 9.2739999999999991 62.503
4896 26.385000000000002 83.378
4897 68.503 14.215
4898 22.350000000000001 69.013999999999996
4899 50.177 33.667999999999999
4900 77.968000000000004 34.640999999999998
4901 59.210000000000001 20.199000000000002
4902 68.605999999999995 71.712000000000003
4903 38.936 45.674999999999997
4904 66.531000000000006 77.126999999999995
4905 42.536999999999999 33.389000000000003
4906 28.295999999999999 30.294
4907 64.719999999999999 24.559999999999999
4908 69.356999999999999 23.151
4909 66.762 92.829999999999998
4910 34.375 33.337000000000003
4911 68.430000000000007 87.763000000000005
4912 65.787999999999997 15.438000000000001
4913 32.008000000000003 20.559999999999999
4914 61.119 31.396999999999998
4915 34.444000000000003 31.748999999999999
4916 26.163 74.959000000000003
4917 61.863 26.268999999999998
4918 30.166 65.257000000000005
4919 19.193000000000001 71.567999999999998
4920 76.667000000000002 68.991
4921 32.918999999999997 31.599
4922 60.106999999999999 70.917000000000002
4923 26.466999999999999 52.668999999999997
4924 7.7839999999999998 19.23
4925 17.009 77.063000000000002
4926 74.182000000000002 73.459000000000003
4927 78.641999999999996 82.225999999999999
4928 37.664000000000001 22.651
4929 27.826000000000001 30.074999999999999
4930 30.378 23.370999999999999
4931 25.364999999999998 75.372
4932 64.807000000000002 36.707999999999998
4933 74.492000000000004 67.495000000000005
4934 28.702000000000002 65.275999999999996
4935 65.632000000000005 29.117999999999999
4936 20.632999999999999 61.661000000000001
4937 73.900000000000006 89.792000000000002
4938 23.091000000000001 69.620999999999995
4939 75.545000000000002 26.844999999999999
4940 65.899000000000001 89.162000000000006
4941 64.528000000000006 26.326000000000001
4942 25.117999999999999 68.700000000000003
4943 63.829999999999998 73.745000000000005
4944 76.623000000000005 22.536000000000001
4945 82.405000000000001 71.355000000000004
4946 59.994999999999997 65.884
4947 41.110999999999997 56.091000000000001
4948 61.241 71.480000000000004
4949 31.503 23.379999999999999
4950 73.933000000000007 80.966999999999999
4951 25.527999999999999 71.879999999999995
4952 48.453000000000003 30.587
4953 63.576000000000001 70.906999999999996
4954 35.750999999999998 31.065000000000001
4955 60.807000000000002 29.207999999999998
4956 79.694999999999993 88.870999999999995
4957 24.838000000000001 45.444000000000003
4958 18.379999999999999 25.273
4959 34.643999999999998 25.146999999999998
4960 64.704999999999998 79.668999999999997
4961 32.456000000000003 29.364999999999998
4962 74.855000000000004 79.421999999999997
4963 73.140000000000001 37.994
4964 22.677 29.887
4965 63.439999999999998 24.042999999999999
4966 17.533000000000001 74.670000000000002
4967 23.568000000000001 36.276000000000003
4968 74.088999999999999 74.647999999999996
4969 54.646999999999998 29.524999999999999
4970 59.475000000000001 63.701000000000001
4971 54.835000000000001 33.659999999999997
4972 64.043000000000006 79.242999999999995
4973 76.003 50.198999999999998
4974 27.364000000000001 51.713999999999999
4975 24.073 39.018999999999998
4976 30.298999999999999 28.890000000000001
4977 22.227 80.241
4978 21.757999999999999 62.715000000000003
4979 72.756 70.710999999999999
4980 31.088999999999999 41.103999999999999
4981 60.768000000000001 84.988
4982 31.141999999999999 18.559000000000001
4983 73.522000000000006 23.289000000000001
4984 36.183999999999997 14.981
4985 24.666 61.682000000000002
4986 73.641000000000005 20.192
4987 63.805999999999997 12.893000000000001
4988 63.759999999999998 28.353000000000002
4989 24.899999999999999 65.757000000000005
4990 68.953000000000003 81.290000000000006
4991 79.644000000000005 12.789
4992 61.366 65.921999999999997
4993 79.287999999999997 77.733999999999995
4994 64.927999999999997 16.847000000000001
4995 11.33 69.721000000000004
4996 23.457999999999998 24.896999999999998
4997 63.771999999999998 19.577000000000002
4998 59.313000000000002 90.421000000000006
4999 38.665999999999997 18.103000000000002
5000 56.561999999999998 12.744999999999999
5001 62.143999999999998 94.540999999999997
5002 14.868 58.060000000000002
5003 24.670999999999999 56.036000000000001
5004 2.52 12.106999999999999
5005 66.622 84.552999999999997
5006 29.620000000000001 27.084
5007 22.802 35.143000000000001
5008 82.268000000000001 77.861999999999995
5009 62.942 14.821999999999999
5010 28.785 22.132000000000001
5011 56.363999999999997 22.009
5012 66.168999999999997 27.91
5013 24.806000000000001 19.757000000000001
5014 29.788 68.793000000000006
5015 47.636000000000003 90.510999999999996
5016 73.212000000000003 25.849
5017 17.327000000000002 18.241
5018 68.792000000000002 20.608000000000001
5019 64.183999999999997 92.221000000000004
5020 35.810000000000002 76.106999999999999
5021 60.012999999999998 32.759
5022 23.805 51.895000000000003
5023 36.585999999999999 28.411999999999999
5024 68.465999999999994 29.058
5025 27.268000000000001 58.731000000000002
5026 70.25 72.799999999999997
5027 14.638 71.015000000000001
5028 19.053999999999998 73.783000000000001
5029 66.460999999999999 74.893000000000001
5030 69.420000000000002 23.356999999999999
5031 26.869 29.292999999999999
5032 62.011000000000003 27.879999999999999
5033 59.268999999999998 67.968999999999994
5034 54.167000000000002 61.990000000000002
5035 55.067 18.620999999999999
5036 62.185000000000002 71.156999999999996
5037 72.096999999999994 83.203999999999994
5038 96.899000000000001 62.627000000000002
5039 68.647999999999996 86.721999999999994
5040 59.024000000000001 36.722999999999999
5041 25.719000000000001 69.549000000000007
5042 29.015999999999998 41.715000000000003
5043 60.954000000000001 38.060000000000002
5044 13.904999999999999 65.992999999999995
5045 10.824 76.418000000000006
5046 26.055 18.594000000000001
5047 29.021000000000001 27.163
5048 46.814999999999998 90.751999999999995
5049 31.675999999999998 73.873999999999995
5050 68.977000000000004 65.021000000000001
5051 62.904000000000003 38.039000000000001
5052 73.738 81.427000000000007
5053 72.129999999999995 89.334000000000003
5054 64.864999999999995 17.172999999999998
5055 55.725999999999999 70.161000000000001
5056 20.196999999999999 64.549999999999997
5057 51.828000000000003 72.369
5058 62.084000000000003 83.593999999999994
5059 15.071999999999999 65.081999999999994
5060 32.329999999999998 71.558000000000007
5061 17.765999999999998 70.587999999999994
5062 19.649000000000001 74.340000000000003
5063 24.809000000000001 17.597000000000001
5064 75.570999999999998 82.322000000000003
5065 69.457999999999998 78.399000000000001
5066 23.135000000000002 75.825000000000003
5067 68.781999999999996 39.622999999999998
5068 57.966999999999999 78.046000000000006
5069 73.590999999999994 63.298000000000002
5070 31.658000000000001 70.599999999999994
5071 70.230999999999995 29.056999999999999
5072 59.484000000000002 24.199999999999999
5073 28.178999999999998 66.725999999999999
5074 27.161999999999999 61.302
5075 21.907 77.069000000000003
5076 12.56 66.722999999999999
5077 66.317999999999998 77.319000000000003
5078 17.623999999999999 62.226999999999997
5079 64.248000000000005 20.207000000000001
5080 33.457999999999998 64.343999999999994
5081 56.286000000000001 85.962000000000003
5082 52.957999999999998 36.384999999999998
5083 23.535 74.650999999999996
5084 29.062999999999999 79.313999999999993
5085 62.954000000000001 21.158000000000001
5086 64.366 88.052999999999997
5087 23.023 66.25
5088 68.846999999999994 78.171000000000006
5089 79.275999999999996 27.571999999999999
5090 78.534000000000006 84.978999999999999
5091 32.340000000000003 52.311
5092 65.700999999999993 74.427000000000007
5093 70.888000000000005 82.028999999999996
5094 28.257000000000001 22.291
5095 34.530999999999999 31.870000000000001
5096 78.156999999999996 19.425000000000001
5097 56.136000000000003 81.168999999999997
5098 22.550000000000001 72.518000000000001
5099 33.210999999999999 19.936
5100 58.033000000000001 31.701000000000001
5101 13.291 63.658000000000001
5102 75.363 89.109999999999999
5103 19.803000000000001 27.933
5104 60.817999999999998 71.819000000000003
5105 57.997999999999998 73.902000000000001
5106 27.271000000000001 27.849
5107 64.846999999999994 83.444999999999993
5108 32.082999999999998 64.731999999999999
5109 71.227000000000004 73.760999999999996
5110 24.881 26.172000000000001
5111 23.148 75.882999999999996
5112 16.992999999999999 72.781999999999996
5113 70.802999999999997 73.644999999999996
5114 15.877000000000001 67.438999999999993
5115 15.987 54.902999999999999
5116 69.061000000000007 71.665999999999997
5117 54.777000000000001 60.225999999999999
5118 30.562000000000001 67.537000000000006
5119 42.396000000000001 20.800999999999998
5120 76.513999999999996 22.347000000000001
5121 11.944000000000001 67.433999999999997
5122 22.445 75.209000000000003
5123 41.161999999999999 25.718
5124 91.852999999999994 71.180000000000007
5125 20.911000000000001 47.677
5126 73.247 31.061
5127 70.144000000000005 16.594000000000001
5128 67.385999999999996 75.212000000000003
5129 19.385000000000002 64.108000000000004
5130 30.850999999999999 61.743000000000002
5131 32.091999999999999 25.242000000000001
5132 60.469999999999999 35.335999999999999
5133 28.620999999999999 17.949999999999999
5134 21.475999999999999 73.018000000000001
5135 34.802999999999997 25.568999999999999
5136 66.412000000000006 22.587
5137 29.824000000000002 12.843999999999999
5138 20.975000000000001 68.653000000000006
5139 22.783000000000001 24.068999999999999
5140 46.506999999999998 21.314
5141 49.838000000000001 80.072000000000003
5142 63.728999999999999 74.549999999999997
5143 25.600000000000001 33.771000000000001
5144 65.775000000000006 74.331999999999994
5145 72.897000000000006 87.488
5146 71.944999999999993 87.060000000000002
5147 28.745000000000001 24.603000000000002
5148 22.456 18.379999999999999
5149 74.629000000000005 34.542999999999999
5150 66.457999999999998 25.552
5151 83.466999999999999 32.609999999999999
5152 15.682 64.236999999999995
5153 44.628 38.973999999999997
5154 35.725000000000001 35.366
5155 69.385000000000005 87.939999999999998
5156 25.928000000000001 67.632999999999996
5157 24.381 25.614000000000001
5158 38.098999999999997 25.378
5159 74.227999999999994 28.911999999999999
5160 28.629999999999999 52.506999999999998
5161 60.762999999999998 2.3479999999999999
5162 40.506999999999998 21.853999999999999
5163 22.622 68.323999999999998
5164 12.391 70.566000000000003
5165 52.918999999999997 20.097999999999999
5166 71.037000000000006 20.344000000000001
5167 19.727 81.001999999999995
5168 73.301000000000002 73.516000000000005
5169 82.477999999999994 73.363
5170 20.344999999999999 56.744999999999997
5171 27.071999999999999 64.816999999999993
5172 20.134 69.248999999999995
5173 70.959000000000003 20.241
5174 37.183999999999997 29.887
5175 22.911999999999999 69.757999999999996
5176 72.212999999999994 23.268999999999998
5177 38.200000000000003 26.763000000000002
5178 61.152000000000001 29.148
5179 77.364000000000004 16.065000000000001
5180 59.091000000000001 85.465000000000003
5181 30.187999999999999 22.861999999999998
5182 19.081 64.445999999999998
5183 64.100999999999999 18.257999999999999
5184 22.992999999999999 66.113
5185 65.647000000000006 25.100000000000001
5186 75.558000000000007 90.626999999999995
5187 65.466999999999999 75
5188 24.091000000000001 33.506999999999998
5189 71.941000000000003 82.045000000000002
5190 60.045999999999999 40.564
5191 65.161000000000001 78.683000000000007
5192 29.253 65.984999999999999
5193 60.652999999999999 76.777000000000001
5194 27.731999999999999 38.305999999999997
5195 70.628 23.167000000000002
5196 48.997 88.712999999999994
5197 81.004000000000005 31.579999999999998
5198 38.337000000000003 14.834
5199 24.175000000000001 72.245999999999995
5200 14.239000000000001 32.902000000000001
5201 60.301000000000002 33.843000000000004
5202 20.797999999999998 58.648000000000003
5203 70.033000000000001 29.279
5204 60.351999999999997 21.367999999999999
5205 12.144 76.218000000000004
5206 25.231000000000002 41.063000000000002
5207 28.815999999999999 73.135000000000005
5208 11.461 70.617000000000004
5209 16.661999999999999 71.257999999999996
5210 26.882999999999999 62.101999999999997
5211 83.203999999999994 75.581999999999994
5212 62.002000000000002 22.143999999999998
5213 38.039000000000001 17.881
5214 66.519000000000005 16.378
5215 25.079000000000001 58.188000000000002
5216 66.944000000000003 11.609
5217 41.725000000000001 19.027000000000001
5218 33.122 37.466000000000001
5219 41.042999999999999 33.012999999999998
5220 12.369999999999999 72.266999999999996
5221 65.926000000000002 37.134
5222 19.024000000000001 78.439999999999998
5223 14.359 61.584000000000003
5224 52.779000000000003 45.667999999999999
5225 24.071000000000002 65.867999999999995
5226 24.184000000000001 60.378
5227 17.280999999999999 53.076000000000001
5228 34.820999999999998 23.699999999999999
5229 26.459 24.475999999999999
5230 29.989999999999998 55.155000000000001
5231 30.814 15.42
5232 20.686 65.588999999999999
5233 40.414000000000001 28.911999999999999
5234 28.206 26.800999999999998
5235 72.602999999999994 27.384
5236 36.107999999999997 62.167000000000002
5237 55.917000000000002 18.742000000000001
5238 11.696 58.268999999999998
5239 34.267000000000003 25.667999999999999
5240 37.003 14.612
5241 48.677999999999997 28.617000000000001
5242 35.816000000000003 31.823
5243 34.173000000000002 27.158000000000001
5244 59.530999999999999 22.786000000000001
5245 87.289000000000001 79.082999999999998
5246 59.994 23.402999999999999
5247 15.496 60.098999999999997
5248 29.698 45.981000000000002
5249 30.759 33.573999999999998
5250 68.332999999999998 85.316000000000003
5251 24.783999999999999 23.518000000000001
5252 81.313000000000002 80.394000000000005
5253 34.831000000000003 41.837000000000003
5254 58.792999999999999 87.189999999999998
5255 61.427 69.563999999999993
5256 29.693999999999999 44.526000000000003
5257 17.513000000000002 20.055
5258 63.226999999999997 78.004999999999995
5259 43.613999999999997 18.440999999999999
5260 72.603999999999999 72.480000000000004
5261 28.513999999999999 29.827999999999999
5262 69.674999999999997 85.983999999999995
5263 26.876000000000001 57.706000000000003
5264 18.864999999999998 77.754999999999995
5265 26.352 16.966999999999999
5266 68.664000000000001 27.991
5267 81.896000000000001 67.789000000000001
5268 71.530000000000001 17.271000000000001
5269 4.8520000000000003 70.084000000000003
5270 47.741 22.433
5271 17.099 36.779000000000003
5272 34.468000000000004 30.405999999999999
5273 21.577000000000002 31.254999999999999
5274 62.956000000000003 18.856000000000002
5275 69.616 34.905000000000001
5276 54.881 34.283000000000001
5277 28.225000000000001 32.215000000000003
5278 84.846000000000004 83.108999999999995
5279 10.359999999999999 61.651000000000003
5280 28.523 20.927
5281 14.606999999999999 73.986999999999995
5282 24.129999999999999 59.902999999999999
5283 73.926000000000002 78.492000000000004
5284 29.535 76.427999999999997
5285 21.303999999999998 59.930999999999997
5286 34.938000000000002 21.576000000000001
5287 17.218 24.957000000000001
5288 26.872 71.131
5289 39.838000000000001 52.563000000000002
5290 77.530000000000001 68.507999999999996
5291 17.585000000000001 55.569000000000003
5292 32.767000000000003 21.914000000000001
5293 65.239999999999995 77.852999999999994
5294 68.183000000000007 37.506999999999998
5295 66.528999999999996 22.074000000000002
5296 37.567999999999998 31.651
5297 58.765999999999998 57.097999999999999
5298 36.546999999999997 32.625
5299 65.662999999999997 21.186
5300 25.518000000000001 31.428999999999998
5301 67.641999999999996 24.800000000000001
5302 14.631 64.486999999999995
5303 67.870000000000005 23.757999999999999
5304 9.1869999999999994 63.529000000000003
5305 59.594999999999999 27.555
5306 80.236999999999995 92.741
5307 25.849 33.073999999999998
5308 35.067999999999998 65.308000000000007
5309 65.546999999999997 18.324999999999999
5310 57.215000000000003 27.088000000000001
5311 20.266999999999999 83.557000000000002
5312 23.099 71.649000000000001
5313 36.914000000000001 57.542000000000002
5314 71.945999999999998 27.440000000000001
5315 59.209000000000003 35.107999999999997
5316 32.938000000000002 31.315000000000001
5317 13.077 71.730000000000004
5318 64.132999999999996 12.696999999999999
5319 61.996000000000002 14.298999999999999
5320 58.017000000000003 18.474
5321 56.058999999999997 35.789999999999999
5322 66.085999999999999 89.980000000000004
5323 10.670999999999999 64.128
5324 16.164999999999999 73.725999999999999
5325 62.161999999999999 31.251000000000001
5326 23.367999999999999 57.362000000000002
5327 68.495000000000005 74.497
5328 69.189999999999998 79.486000000000004
5329 57.848999999999997 80.406999999999996
5330 37.783000000000001 33.765000000000001
5331 24.785 65.834999999999994
5332 23.684000000000001 45.186
5333 17.449000000000002 18.542000000000002
5334 40.890999999999998 64.653999999999996
5335 75.329999999999998 31.93
5336 70.488 22.004999999999999
5337 30.818000000000001 34.506
5338 68.370999999999995 83.230999999999995
5339 65.971000000000004 83.158000000000001
5340 54.405999999999999 80.807000000000002
5341 23.733000000000001 38.886000000000003
5342 73.103999999999999 15.621
5343 29.091000000000001 77.606999999999999
5344 56.314 83.552000000000007
5345 73.406999999999996 82.480000000000004
5346 45.579999999999998 16.683
5347 19.213999999999999 60.533000000000001
5348 45.396999999999998 26.469000000000001
5349 78.697999999999993 21.498999999999999
5350 7.6310000000000002 63.085000000000001
5351 62.932000000000002 21.895
5352 8.0009999999999994 50.679000000000002
5353 23.199999999999999 22.456
5354 23.106999999999999 61.936
5355 54.581000000000003 70.114000000000004
5356 26.411999999999999 28.204000000000001
5357 35.377000000000002 29.344000000000001
5358 30.847000000000001 46.462000000000003
5359 63.804000000000002 85.688000000000002
5360 67.558999999999997 30.917999999999999
5361 25.619 69.012
5362 74.186999999999998 6.6500000000000004
5363 71.441999999999993 66.275999999999996
5364 12.439 27.366
5365 42.289999999999999 22.818999999999999
5366 65.179000000000002 20.045000000000002
5367 73.367000000000004 98.260000000000005
5368 64.869 15.35
5369 34.228000000000002 27.888999999999999
5370 74.245000000000005 98.126999999999995
5371 26.834 22.946999999999999
5372 22.088999999999999 54.414000000000001
5373 37.524000000000001 26.710000000000001
5374 69.269000000000005 35.566000000000003
5375 35.595999999999997 63.764000000000003
5376 71.203999999999994 13.129
5377 17.434000000000001 69.643000000000001
5378 78.415000000000006 22.236999999999998
5379 61.591000000000001 21.559000000000001
5380 70.896000000000001 82.061999999999998
5381 65.876000000000005 77.989999999999995
5382 28.821999999999999 66.016999999999996
5383 61.951000000000001 30.314
5384 61.692 39.893999999999998
5385 1.645 64.301000000000002
5386 72.683999999999997 25.670000000000002
5387 68.061999999999998 78.402000000000001
5388 69.072999999999993 30.559000000000001
5389 64.530000000000001 21.245999999999999
5390 23.395 61.107999999999997
5391 22.143000000000001 52.164999999999999
5392 17.776 63.192
5393 73.503 22.629999999999999
5394 57.453000000000003 32.262999999999998
5395 9.3399999999999999 78.521000000000001
5396 26.244 27.373999999999999
5397 28.699000000000002 29.004999999999999
5398 23.422999999999998 80.628
5399 62.552999999999997 36.625
5400 54.854999999999997 5.8449999999999998
5401 37.700000000000003 33.076999999999998
5402 32.807000000000002 22.672000000000001
5403 60.75 29.43
5404 65.140000000000001 30.719999999999999
5405 72.352000000000004 18.431000000000001
5406 23.109999999999999 62.072000000000003
5407 31.923999999999999 29.167999999999999
5408 39.469999999999999 29.864000000000001
5409 26.577000000000002 54.856000000000002
5410 74.983000000000004 39.478999999999999
5411 57.622999999999998 40.600000000000001
5412 49.100999999999999 30.257000000000001
5413 58.776000000000003 18.061
5414 72.858999999999995 15.936999999999999
5415 42.808 59.494
5416 34.780999999999999 23.068000000000001
5417 78.167000000000002 26.199000000000002
5418 22.661999999999999 64.013000000000005
5419 25.876000000000001 34.334000000000003
5420 18.404 70.935000000000002
5421 64.207999999999998 61.378999999999998
5422 61.677 18.132999999999999
5423 38.417999999999999 80.091999999999999
5424 30.036000000000001 64.988
5425 76.754999999999995 76.849999999999994
5426 61.738999999999997 82.025999999999996
5427 26.242000000000001 35.814999999999998
5428 18.815000000000001 62.270000000000003
5429 25.428999999999998 23.536000000000001
5430 31.544 55.277000000000001
5431 65.686000000000007 65.855999999999995
5432 71.311000000000007 74.620000000000005
5433 71.582999999999998 38.334000000000003
5434 21.117999999999999 26.829999999999998
5435 75.551000000000002 67.016999999999996
5436 59.253999999999998 39.177
5437 68.078000000000003 76.626999999999995
5438 13.872999999999999 74.239000000000004
5439 71.780000000000001 81.266000000000005
5440 12.103 52.600000000000001
5441 30.143999999999998 17.762
5442 57.456000000000003 74.599999999999994
5443 27.884 28.382000000000001
5444 65.826999999999998 79.733000000000004
5445 25.710000000000001 59.677999999999997
5446 12.631 64.977000000000004
5447 57.895000000000003 19.064
5448 45.341000000000001 29.501000000000001
5449 34.691000000000003 25.783999999999999
5450 56.994 29.625
5451 54.930999999999997 12.564
5452 19.283000000000001 60.331000000000003
5453 71.628 64.837999999999994
5454 69.805000000000007 30.960999999999999
5455 35.116999999999997 17.373999999999999
5456 20.567 31.247
5457 56.570999999999998 22.707999999999998
5458 63.003 80.878
5459 33.442999999999998 58.917000000000002
5460 20.047000000000001 75.266999999999996
5461 70.581000000000003 92.037999999999997
5462 21.196000000000002 69.596999999999994
5463 31.082000000000001 28.239000000000001
5464 34.326000000000001 23.571999999999999
5465 63.646999999999998 68.040999999999997
5466 55.238 25.387
5467 20.600999999999999 73.602000000000004
5468 60.695 82.855999999999995
5469 69.128 28.391999999999999
5470 68.599999999999994 85.947000000000003
5471 69.096999999999994 16.678999999999998
5472 67.792000000000002 26.306000000000001
5473 56.715000000000003 68.221999999999994
5474 32.634999999999998 64.771000000000001
5475 24.353000000000002 76.759
5476 28.416 53.170999999999999
5477 52.945999999999998 24.448
5478 53.664000000000001 81.870000000000005
5479 58.164999999999999 80.057000000000002
5480 49.756999999999998 37.055
5481 18.995999999999999 53.722999999999999
5482 16.422999999999998 66.890000000000001
5483 20.838000000000001 62.570999999999998
5484 58.335999999999999 35.616999999999997
5485 27.25 28.184999999999999
5486 13.367000000000001 11.936999999999999
5487 12.523 72.706000000000003
5488 44.939999999999998 17.734000000000002
5489 28.193000000000001 61.780999999999999
5490 32.103999999999999 74.469999999999999
5491 46.841999999999999 18.699999999999999
5492 36.817 22.326000000000001
5493 69.378 21.23
5494 62.466999999999999 86.001999999999995
5495 18.837 27.077999999999999
5496 63.203000000000003 24.411999999999999
5497 67.293000000000006 76.025000000000006
5498 35.122 19.120000000000001
5499 28.553000000000001 59.819000000000003
5500 28.77 62.347999999999999
5501 77.941999999999993 35.920000000000002
5502 23.637 20.684999999999999
5503 54.128 23.702999999999999
5504 60.753999999999998 18.797999999999998
5505 14.048 77.590000000000003
5506 8.9359999999999999 41.981000000000002
5507 60.878999999999998 90.938000000000002
5508 68.350999999999999 82.521000000000001
5509 70.222999999999999 27.806999999999999
5510 60.920999999999999 36.506999999999998
5511 65.236999999999995 74.695999999999998
5512 30.422000000000001 68.286000000000001
5513 64.914000000000001 77.429000000000002
5514 65.033000000000001 20.228999999999999
5515 78.519000000000005 69.819000000000003
5516 73.216999999999999 28.198
5517 31.936 74.582999999999998
5518 25.347999999999999 68.468000000000004
5519 44.990000000000002 35.332999999999998
5520 73.641000000000005 80.191999999999993
5521 31.829000000000001 12.555999999999999
5522 59.991999999999997 25.936
5523 15.916 57.863999999999997
5524 26.585999999999999 37.719000000000001
5525 72.914000000000001 22.638000000000002
5526 14.058999999999999 22.327999999999999
5527 35.171999999999997 18.606000000000002
5528 81.028000000000006 37.706000000000003
5529 58.268000000000001 68.915000000000006
5530 52.927 24.306999999999999
5531 69.623000000000005 37.052999999999997
5532 75.016999999999996 23.138999999999999
5533 37.213000000000001 35.023000000000003
5534 31.693999999999999 13.932
5535 36.075000000000003 73.644000000000005
5536 45.765000000000001 33.292999999999999
5537 20.379999999999999 69.582999999999998
5538 17.021999999999998 62.843000000000004
5539 38.476999999999997 25.388000000000002
5540 28.861999999999998 68.908000000000001
5541 23.088000000000001 54.457000000000001
5542 26.16 16.504000000000001
5543 64.268000000000001 91.707999999999998
5544 13 67.656000000000006
5545 28.923999999999999 26.541
5546 13.311999999999999 61.122
5547 73.619 34.313000000000002
5548 27.806999999999999 24.733000000000001
5549 71.665000000000006 24.062000000000001
5550 25.452000000000002 57.787999999999997
5551 29.094999999999999 16.478999999999999
5552 62.328000000000003 19.937999999999999
5553 67.579999999999998 65.325999999999993
5554 33.293999999999997 60.692
5555 59.685000000000002 86.390000000000001
5556 63.335999999999999 83.399000000000001
5557 67.988 20.753
5558 19.145 62.859999999999999
5559 64.370999999999995 35.064999999999998
5560 72.364999999999995 33.979999999999997
5561 28.151 66.007999999999996
5562 26.367000000000001 30.350999999999999
5563 72.144000000000005 13.301
5564 65.358999999999995 21.434999999999999
5565 22.079000000000001 13.474
5566 53.238999999999997 73.483999999999995
5567 30.128 24.379000000000001
5568 70.852000000000004 31.134
5569 30.462 35.700000000000003
5570 27.329000000000001 21.638999999999999
5571 74.775000000000006 71.084999999999994
5572 35.161999999999999 32.165999999999997
5573 68.611000000000004 18.666
5574 86.225999999999999 24.582999999999998
5575 62.149999999999999 74.909000000000006
5576 28.919 37.662999999999997
5577 73.872 70.599000000000004
5578 23.167000000000002 62.292999999999999
5579 9.3949999999999996 62.207999999999998
5580 32.661999999999999 70.141999999999996
5581 75.819999999999993 24.423999999999999
5582 60.256999999999998 25.582999999999998
5583 68.841999999999999 31.637
5584 60.503 85.876000000000005
5585 32.637 24.975999999999999
5586 28.437000000000001 60.234999999999999
5587 67.206999999999994 68.784000000000006
5588 36.902999999999999 31.608000000000001
5589 66.113 79.209000000000003
5590 11.988 71.254999999999995
5591 60.898000000000003 40.307000000000002
5592 27.792999999999999 24.756
5593 26.216000000000001 63.094000000000001
5594 23.225999999999999 38.625999999999998
5595 64.090999999999994 28.535
5596 17.652000000000001 21.533999999999999
5597 14.486000000000001 55.509999999999998
5598 24.109999999999999 78.706000000000003
5599 27.702999999999999 72.942999999999998
5600 33.18 75.465000000000003
5601 66.331999999999994 26.834
5602 38.734999999999999 16.109000000000002
5603 28.408999999999999 28.739999999999998
5604 76.876999999999995 84.356999999999999
5605 72.745999999999995 72.067999999999998
5606 38.838000000000001 24.184999999999999
5607 50.430999999999997 37.249000000000002
5608 24.010999999999999 77.411000000000001
5609 15.898999999999999 29.338999999999999
5610 23.460999999999999 52.326999999999998
5611 55.777999999999999 31.529
5612 21.715 61.066000000000003
5613 24.834 65.367999999999995
5614 26.457999999999998 66.700000000000003
5615 66.831000000000003 70.144999999999996
5616 66.308000000000007 78.185000000000002
5617 22.157 64.460999999999999
5618 62.823 87.224999999999994
5619 17.427 61.198999999999998
5620 69.825999999999993 22.097999999999999
5621 18.600000000000001 24.818000000000001
5622 4.5220000000000002 61.134
5623 67.772000000000006 92.519999999999996
5624 11.426 74.367999999999995
5625 29.196000000000002 72.560000000000002
5626 58.295000000000002 83.263000000000005
5627 70.778000000000006 87.549000000000007
5628 14.294 48.658999999999999
5629 29.341000000000001 84.843999999999994
5630 24.853999999999999 72.313000000000002
5631 69.251999999999995 21.268999999999998
5632 55.219000000000001 35.942
5633 57.564999999999998 72.855000000000004
5634 72.460999999999999 89.019000000000005
5635 80.697999999999993 71.840000000000003
5636 64.084000000000003 24.587
5637 34.944000000000003 68.540999999999997
5638 33.813000000000002 48.701000000000001
5639 62.409999999999997 26.760999999999999
5640 54.654000000000003 79.483000000000004
5641 25.358000000000001 40.597999999999999
5642 29.914000000000001 77.058000000000007
5643 68.483000000000004 22.873999999999999
5644 24.824999999999999 57.590000000000003
5645 60.936999999999998 15.795999999999999
5646 15.478999999999999 73.281999999999996
5647 50.570999999999998 85.995999999999995
5648 73.757999999999996 89.850999999999999
5649 25.884 59.433999999999997
5650 66.040000000000006 31.407
5651 55.122999999999998 69.031999999999996
5652 62.228999999999999 22.425000000000001
5653 59.597000000000001 36.988999999999997
5654 65.614000000000004 20.565000000000001
5655 68.849999999999994 17.721
5656 28.119 73.432000000000002
5657 77.551000000000002 23.193000000000001
5658 66.558999999999997 78.322000000000003
5659 71.727000000000004 20.916
5660 66.241 81.658000000000001
5661 69.283000000000001 22.552
5662 27.228999999999999 75.718000000000004
5663 65.257000000000005 19.34
5664 14.766 70.134
5665 47.271000000000001 28.158999999999999
5666 76.108999999999995 75.430999999999997
5667 68.218000000000004 28.762
5668 65.001999999999995 75.081999999999994
5669 69.421000000000006 23.696000000000002
5670 39.439999999999998 20.282
5671 15.295 68.962000000000003
5672 8.5329999999999995 66.400999999999996
5673 33.857999999999997 21.710000000000001
5674 69.667000000000002 69.378
5675 38.725000000000001 27.382999999999999
5676 17.149000000000001 66.320999999999998
5677 70.719999999999999 81.254999999999995
5678 18.143999999999998 69.641999999999996
5679 52.250999999999998 28.919
5680 69.341999999999999 31.382000000000001
5681 15.166 69.189999999999998
5682 64.125 71.527000000000001
5683 74.751000000000005 32.777999999999999
5684 11.548999999999999 55.085000000000001
5685 78.891999999999996 79.247
5686 20.463999999999999 59.601999999999997
5687 22.484999999999999 61.506
5688 30.731999999999999 76.102999999999994
5689 71.040999999999997 36.207999999999998
5690 70.602999999999994 82.578999999999994
5691 32.366999999999997 27.454000000000001
5692 69.608999999999995 27.152000000000001
5693 65.018000000000001 81.757000000000005
5694 3.8969999999999998 58.451000000000001
5695 30.439 24.643000000000001
5696 27.166 31.199999999999999
5697 29.994 26.149000000000001
5698 13.574999999999999 79.747
5699 58.786999999999999 11.016
5700 81.207999999999998 73.037999999999997
5701 43.837000000000003 29.853000000000002
5702 80.277000000000001 30.472999999999999
5703 19.257000000000001 34.691000000000003
5704 27.969000000000001 60.587000000000003
5705 53.636000000000003 25.774000000000001
5706 71.010999999999996 77.549999999999997
5707 58.375999999999998 76.608999999999995
5708 22.024999999999999 31.748999999999999
5709 59.725999999999999 29.077999999999999
5710 22.847999999999999 31.489999999999998
5711 80.302000000000007 89.751999999999995
5712 57.904000000000003 21.925999999999998
5713 81.293000000000006 82.435000000000002
5714 25.202000000000002 59.347000000000001
5715 34.085999999999999 43.444000000000003
5716 28.085000000000001 36.420000000000002
5717 57.299999999999997 18.036999999999999
5718 73.093000000000004 29.446999999999999
5719 23.433 73.278000000000006
5720 25.481999999999999 21.210000000000001
5721 22.155000000000001 70.741
5722 42.159999999999997 71.977999999999994
5723 76.296000000000006 82.007999999999996
5724 32.106000000000002 37.037999999999997
5725 71.378 79.429000000000002
5726 27.812000000000001 25.646000000000001
5727 36.436 25.907
5728 29.161000000000001 59.734000000000002
5729 70.741 33.078000000000003
5730 58.786999999999999 28.120000000000001
5731 16.721 65.459000000000003
5732 18.93 50.185000000000002
5733 41.994 22.824000000000002
5734 36.420999999999999 54.783999999999999
5735 68.221000000000004 21.468
5736 11.956 81.274000000000001
5737 29.285 33.933
5738 79.596999999999994 86.614000000000004
5739 44.033000000000001 30.146000000000001
5740 74.775999999999996 33.902999999999999
5741 31.879000000000001 25.224
5742 70.108000000000004 31.295000000000002
5743 23.952999999999999 61.591000000000001
5744 69.385000000000005 28.262
5745 34.219999999999999 8.3300000000000001
5746 25.803000000000001 34.746000000000002
5747 11.592000000000001 57.877000000000002
5748 32.161999999999999 57.081000000000003
5749 64.364000000000004 90.911000000000001
5750 13.208 67.620000000000005
5751 70.861000000000004 29.501999999999999
5752 39.585999999999999 51.994999999999997
5753 78.959999999999994 60.841000000000001
5754 32.326999999999998 69.670000000000002
5755 59.402999999999999 22.305
5756 63.625999999999998 21.885999999999999
5757 69.555000000000007 25.809000000000001
5758 26.375 18.396999999999998
5759 42.715000000000003 19.402000000000001
5760 17.753 80.153000000000006
5761 42.828000000000003 26.814
5762 31.867000000000001 19.071000000000002
5763 68.905000000000001 60.011000000000003
5764 76.126999999999995 16.036999999999999
5765 20.866 74.326999999999998
5766 27.358000000000001 64.254000000000005
5767 9.2379999999999995 50.665999999999997
5768 66.763999999999996 64.084000000000003
5769 66.995000000000005 87.897999999999996
5770 20.006 73.980000000000004
5771 17.510000000000002 55.488
5772 75.466999999999999 74.082999999999998
5773 31.372 43.229999999999997
5774 19.202000000000002 63.587000000000003
5775 30.071999999999999 23.855
5776 68.462999999999994 40.558999999999997
5777 16.617000000000001 29.045000000000002
5778 80.457999999999998 83.867000000000004
5779 55.375999999999998 30.045999999999999
5780 36.451999999999998 13.319000000000001
5781 15.442 64.495999999999995
5782 14.385 53.877000000000002
5783 78.322000000000003 77.835999999999999
5784 30.751999999999999 38.164000000000001
5785 23.622 17.228999999999999
5786 64.120999999999995 81.748000000000005
5787 69.394000000000005 82.459000000000003
5788 65.605000000000004 89.221999999999994
5789 71.239000000000004 31.268999999999998
5790 69.159000000000006 64.388999999999996
5791 15.689 73.605999999999995
5792 25.292999999999999 65.661000000000001
5793 24.579999999999998 30.27
5794 26.713000000000001 20.053000000000001
5795 51.854999999999997 76.576999999999998
5796 71.298000000000002 80.730999999999995
5797 27.481000000000002 27.661999999999999
5798 65.269999999999996 85.676000000000002
5799 52.593000000000004 89.402000000000001
5800 31.972999999999999 58.613999999999997
5801 79.853999999999999 71.956000000000003
5802 69.671999999999997 71.069000000000003
5803 8.4060000000000006 80.572000000000003
5804 30.812999999999999 13.811999999999999
5805 27.824999999999999 64.132000000000005
5806 23.081 64.531000000000006
5807 29.513000000000002 69.864000000000004
5808 61.591999999999999 34.156999999999996
5809 30.707999999999998 30.039999999999999
5810 73.338999999999999 65.108999999999995
5811 70.100999999999999 83.358999999999995
5812 42.994 23.518000000000001
5813 38.576000000000001 30.498999999999999
5814 34.670999999999999 28.891999999999999
5815 38.051000000000002 11.489000000000001
5816 25.952000000000002 59.805999999999997
5817 35.070999999999998 67.138000000000005
5818 79.844999999999999 22.029
5819 22.173999999999999 25.923999999999999
5820 33.350000000000001 22.190000000000001
5821 69.555999999999997 14.728
5822 63.240000000000002 33.863
5823 47.106000000000002 30.57
5824 67.846999999999994 68.876000000000005
5825 71.497 19.123000000000001
5826 24.811 19.853999999999999
5827 44.884 29.951000000000001
5828 14.369 76.902000000000001
5829 55.420000000000002 27.155999999999999
5830 28.103000000000002 18.506
5831 82.792000000000002 73.930000000000007
5832 75.364000000000004 79.855999999999995
5833 72.606999999999999 24.41
5834 25.419 74.876999999999995
5835 78.849999999999994 69.522999999999996
5836 28.091000000000001 73.986000000000004
5837 32.847000000000001 69.518000000000001
5838 47.93 25.501000000000001
5839 31.443999999999999 71.796999999999997
5840 67.587999999999994 71.635999999999996
5841 20.925000000000001 73.337999999999994
5842 62.451999999999998 26.184999999999999
5843 32.32 26.109999999999999
5844 60.631999999999998 60.128999999999998
5845 56.630000000000003 29.904
5846 16.332000000000001 57.627000000000002
5847 40.627000000000002 23.212
5848 62.551000000000002 24.795999999999999
5849 23.538 27.09
5850 13.837 60.847000000000001
5851 19.413 64.194999999999993
5852 15.385999999999999 16.408000000000001
5853 65.951999999999998 81.951999999999998
5854 30.629999999999999 29.044
5855 56.755000000000003 75.001000000000005
5856 32.933999999999997 25.736999999999998
5857 74.659000000000006 29.399000000000001
5858 55.377000000000002 26.172000000000001
5859 18.231999999999999 30.042999999999999
5860 69.850999999999999 63.582000000000001
5861 25.638000000000002 62.094999999999999
5862 42.747 30.594000000000001
5863 26.454999999999998 58.865000000000002
5864 45.128999999999998 26.914000000000001
5865 23.152000000000001 79.159999999999997
5866 81.094999999999999 70.069999999999993
5867 26.821999999999999 30.52
5868 68.599000000000004 65.572000000000003
5869 19.248999999999999 37.268999999999998
5870 16.501999999999999 26.73
5871 67.463999999999999 62.716000000000001
5872 34.179000000000002 27.257999999999999
5873 70.206999999999994 29.402000000000001
5874 76.066000000000003 73.626999999999995
5875 79.667000000000002 74.840999999999994
5876 68.441000000000003 76.548000000000002
5877 56.146999999999998 80.248000000000005
5878 71.370000000000005 75.757999999999996
5879 72.138000000000005 84.894999999999996
5880 66.939999999999998 33.198
5881 37.505000000000003 21.702000000000002
5882 22.66 24.259
5883 18.231999999999999 40.229999999999997
5884 13.813000000000001 70.046999999999997
5885 32.755000000000003 75.433000000000007
5886 16.245000000000001 34.024000000000001
5887 26.393000000000001 35.978000000000002
5888 30.603000000000002 16.43
5889 67.052999999999997 31.73
5890 66.322000000000003 89.400999999999996
5891 67.073999999999998 68.936000000000007
5892 43.344000000000001 26.991
5893 64.867999999999995 27.923999999999999
5894 71.109999999999999 32.808
5895 65.941999999999993 13.09
5896 28.876000000000001 29.992000000000001
5897 65.941000000000003 23.055
5898 33.310000000000002 84.034000000000006
5899 21.545999999999999 68.369
5900 56.316000000000003 25.443999999999999
5901 76.492999999999995 46.573
5902 7.4290000000000003 72.609999999999999
5903 29.637 28.343
5904 73.593000000000004 83.265000000000001
5905 27.594000000000001 28.045000000000002
5906 28.038 26.565000000000001
5907 17.523 78.117000000000004
5908 36.344999999999999 25.739000000000001
5909 42.770000000000003 26.302
5910 17.649999999999999 73.835999999999999
5911 59.176000000000002 55.762999999999998
5912 24.971 75.537999999999997
5913 70.436999999999998 26.341000000000001
5914 86.072999999999993 74.613
5915 23.82 37.084000000000003
5916 7.7969999999999997 62.457999999999998
5917 62.619 67.733999999999995
5918 36.929000000000002 22.582999999999998
5919 76.585999999999999 27.170999999999999
5920 24.300999999999998 73.061999999999998
5921 73.486999999999995 83.719999999999999
5922 36.509999999999998 23.611000000000001
5923 19.943000000000001 59.168999999999997
5924 30.239000000000001 26.184000000000001
5925 70.543000000000006 75.647999999999996
5926 32.198 65.174999999999997
5927 62.924999999999997 82.906999999999996
5928 28.779 37.286000000000001
5929 65.721000000000004 43.753999999999998
5930 71.180000000000007 90.180000000000007
5931 70.147999999999996 84.085999999999999
5932 29.879999999999999 64.774000000000001
5933 19.879000000000001 65.831999999999994
5934 58.938000000000002 79.674999999999997
5935 27.928000000000001 60.366999999999997
5936 35.911000000000001 31.106000000000002
5937 64.034999999999997 82.311999999999998
5938 70.284000000000006 87.424999999999997
5939 75.265000000000001 79.929000000000002
5940 34.771999999999998 25.361000000000001
5941 27.283000000000001 45.427999999999997
5942 14.585000000000001 69.495999999999995
5943 58.268000000000001 33.902999999999999
5944 63.656999999999996 86.668999999999997
5945 67.885999999999996 79.995000000000005
5946 71.087999999999994 27.364999999999998
5947 52.965000000000003 70.605000000000004
5948 45.343000000000004 14.303000000000001
5949 28.786000000000001 63.881999999999998
5950 60.228000000000002 33.363
5951 70.897999999999996 30.777000000000001
5952 66.338999999999999 28.585000000000001
5953 49.616 22.114000000000001
5954 58.656999999999996 25.530999999999999
5955 72.573999999999998 20.882000000000001
5956 14.672000000000001 69.060000000000002
5957 35.847000000000001 19.329000000000001
5958 76.706999999999994 82.153000000000006
5959 58.491 22.43
5960 40.363999999999997 63.484000000000002
5961 64.980999999999995 82.088999999999999
5962 30.777000000000001 72.852000000000004
5963 64.433000000000007 87.363
5964 72.975999999999999 72.709999999999994
5965 17.143999999999998 51.381999999999998
5966 28.591999999999999 20.363
5967 73.341999999999999 79.486999999999995
5968 12.468999999999999 79.305000000000007
5969 50.281999999999996 80.376000000000005
5970 66.622 76.938999999999993
5971 18.538 22.594000000000001
5972 20.699999999999999 21.843
5973 16.087 19.690000000000001
5974 42.518000000000001 21.863
5975 52.212000000000003 87.132000000000005
5976 26.457999999999998 57.253999999999998
5977 62.698 18.844000000000001
5978 66.724000000000004 23.701000000000001
5979 76.599999999999994 39.249000000000002
5980 39.143000000000001 19.614000000000001
5981 37.255000000000003 27.754000000000001
5982 84.150000000000006 22.053000000000001
5983 29.885000000000002 24.855
5984 33.189999999999998 75.231999999999999
5985 62.085000000000001 67.686999999999998
5986 33.880000000000003 65.984999999999999
5987 68.137 29.059999999999999
5988 62.380000000000003 71.286000000000001
5989 76.070999999999998 72.570999999999998
5990 31.309000000000001 33.771999999999998
5991 66.980999999999995 84.114000000000004
5992 60.218000000000004 36.003
5993 66.414000000000001 80.430000000000007
5994 25.102 68.028999999999996
5995 36.558 37.436
5996 63.417999999999999 22.672000000000001
5997 11.653 59.634999999999998
5998 65.820999999999998 8.7539999999999996
5999 73.141999999999996 78.912999999999997
6000 27.463000000000001 64.790999999999997
6001 24.234999999999999 17.91
6002 29.753 22.347999999999999
6003 37.731000000000002 18.539000000000001
6004 17.577999999999999 33.493000000000002
6005 25.465 81.272000000000006
6006 55.502000000000002 18.681999999999999
6007 36.390999999999998 54.277999999999999
6008 63.380000000000003 96.753
6009 29.385000000000002 75.316999999999993
6010 25.571999999999999 60.625999999999998
6011 71.953000000000003 32.832000000000001
6012 27.366 24.524000000000001
6013 63.768999999999998 81.492000000000004
6014 26.861000000000001 32.844999999999999
6015 71.558000000000007 28.564
6016 78.391000000000005 41.170000000000002
6017 39.703000000000003 22.978999999999999
6018 33.340000000000003 64.572000000000003
6019 37.912999999999997 12.936999999999999
6020 74.350999999999999 76.947999999999993
6021 63.226999999999997 68.109999999999999
6022 49.770000000000003 89.566000000000003
6023 4.1740000000000004 64.132999999999996
6024 24.113 32.896000000000001
6025 16.606000000000002 72.325999999999993
6026 66.105000000000004 37.701999999999998
6027 24.484999999999999 27.09
6028 71.980999999999995 70.159000000000006
6029 80.816000000000003 31.475000000000001
6030 39.732999999999997 31.309999999999999
6031 23.684000000000001 42.628999999999998
6032 71.533000000000001 83.968000000000004
6033 31.783000000000001 68.468999999999994
6034 28.390999999999998 16.254000000000001
6035 78.766999999999996 29.486000000000001
6036 69.626000000000005 86.347999999999999
6037 17.206 61.113
6038 27.795000000000002 67.555999999999997
6039 29.361000000000001 17.196000000000002
6040 62.901000000000003 23.509
6041 55.317 32.843000000000004
6042 66.457999999999998 83.468999999999994
6043 71.051000000000002 83.343999999999994
6044 57.058 33.515000000000001
6045 66.278000000000006 72.963999999999999
6046 81.257999999999996 92.055000000000007
6047 64.409000000000006 84.712999999999994
6048 66.103999999999999 28.858000000000001
6049 28.010999999999999 62.829999999999998
6050 29.129000000000001 54.814
6051 61.304000000000002 29.202999999999999
6052 14.573 65.602999999999994
6053 77.597999999999999 82.594999999999999
6054 18.896000000000001 63.648000000000003
6055 44.813000000000002 10.948
6056 26.82 73.593000000000004
6057 12.666 58.546999999999997
6058 40.625 47.506
6059 29.904 16.934000000000001
6060 17.766999999999999 64.739000000000004
6061 72.319999999999993 29.439
6062 27.84 23.425999999999998
6063 12.263999999999999 24.981000000000002
6064 6.7119999999999997 55.997
6065 36.688000000000002 67.381
6066 58.119 96.120999999999995
6067 49.136000000000003 74.650999999999996
6068 75.433999999999997 25.076000000000001
6069 25.402999999999999 76.064999999999998
6070 66.004999999999995 27.657
6071 77.305999999999997 80.135999999999996
6072 74.597999999999999 67.242999999999995
6073 63.052999999999997 25.059999999999999
6074 80.646000000000001 16.574999999999999
6075 75.073999999999998 90.899000000000001
6076 4.0839999999999996 65.953999999999994
6077 62.799999999999997 28.771999999999998
6078 77.111000000000004 69.275000000000006
6079 63.628999999999998 73.680000000000007
6080 55.505000000000003 86.876000000000005
6081 68.388000000000005 19.376000000000001
6082 33.591000000000001 28.164000000000001
6083 26.085000000000001 58.444000000000003
6084 60.898000000000003 90.418000000000006
6085 42.706000000000003 55.874000000000002
6086 31.625 21.972000000000001
6087 58.655999999999999 29.225999999999999
6088 30.405999999999999 75.811999999999998
6089 35.353999999999999 31.393000000000001
6090 24.309000000000001 26.742000000000001
6091 36.578000000000003 23.492000000000001
6092 29.152000000000001 73.376999999999995
6093 50.438000000000002 20.209
6094 62.533999999999999 32.225999999999999
6095 13.516 66.432000000000002
6096 11.99 56.677999999999997
6097 30.658000000000001 21.962
6098 22.699999999999999 67.304000000000002
6099 63.149000000000001 78.486000000000004
6100 23.231999999999999 29.131
6101 27.736000000000001 54.814999999999998
6102 56.773000000000003 70.519999999999996
6103 22.501000000000001 76.287000000000006
6104 68.150999999999996 76.849000000000004
6105 33.323999999999998 33.676000000000002
6106 40.039000000000001 27.940000000000001
6107 38.585999999999999 19.021000000000001
6108 44.518000000000001 25.552
6109 17.539999999999999 78.971999999999994
6110 54.631 27.428999999999998
6111 30.475000000000001 33.006
6112 33.280000000000001 51.057000000000002
6113 32.718000000000004 9.1029999999999998
6114 58.649999999999999 18.712
6115 30.091999999999999 69.477999999999994
6116 5.9299999999999997 64.704999999999998
6117 66.239999999999995 64.680999999999997
6118 27.710999999999999 77.451999999999998
6119 65.992999999999995 68.197000000000003
6120 19.039000000000001 72.938999999999993
6121 30.652000000000001 64.313999999999993
6122 41.667999999999999 14.512
6123 59.115000000000002 24.221
6124 65.319000000000003 32.896999999999998
6125 36.289000000000001 40.195
6126 28.754000000000001 20.917999999999999
6127 13.717000000000001 19.946000000000002
6128 20.574000000000002 60.406999999999996
6129 20.253 21.75
6130 21.184000000000001 65.259
6131 77.730000000000004 93.149000000000001
6132 72.438000000000002 23.797999999999998
6133 53.386000000000003 23.645
6134 62.738 20.5
6135 63.576000000000001 26.079999999999998
6136 20.055 78.457999999999998
6137 71.754999999999995 75.501000000000005
6138 30.872 29.271000000000001
6139 22.853999999999999 44.749000000000002
6140 29.652000000000001 34.896999999999998
6141 21.032 75.108000000000004
6142 76.394000000000005 81.805999999999997
6143 38.869 28.559000000000001
6144 64.896000000000001 79.022999999999996
6145 69.680999999999997 90.647000000000006
6146 60.542000000000002 79.067999999999998
6147 34.734000000000002 38.890999999999998
6148 68.849999999999994 31.709
6149 33.351999999999997 12.872999999999999
6150 85.549000000000007 69.412000000000006
6151 68.557000000000002 81.036000000000001
6152 62.634999999999998 18.041
6153 35.154000000000003 19.135999999999999
6154 24.016999999999999 63.768999999999998
6155 59.451000000000001 33.887
6156 38.978999999999999 25.149000000000001
6157 78.899000000000001 77.748000000000005
6158 75.936999999999998 89.658000000000001
6159 39.253 27.773
6160 27.161999999999999 5.0449999999999999
6161 82.578999999999994 76.704999999999998
6162 52.32 25.863
6163 70.655000000000001 17.030000000000001
6164 18.244 66.936000000000007
6165 32.784999999999997 26.795999999999999
6166 33.151000000000003 26.445
6167 26.076000000000001 20.100999999999999
6168 48.768000000000001 83.870999999999995
6169 65.334000000000003 69.691000000000003
6170 37.661000000000001 61.088999999999999
6171 35.831000000000003 12.069000000000001
6172 31.16 52.905999999999999
6173 69.272000000000006 29.370000000000001
6174 29.763000000000002 15.711
6175 73.418999999999997 86.715000000000003
6176 38.906999999999996 28.818999999999999
6177 31.292999999999999 21.536999999999999
6178 42.286000000000001 36.026000000000003
6179 67.576999999999998 64.837000000000003
6180 30.963999999999999 21.550999999999998
6181 18.207000000000001 76.465000000000003
6182 71.048000000000002 81.058999999999997
6183 62.223999999999997 25.050999999999998
6184 25.664000000000001 62.131999999999998
6185 72.206000000000003 25.922000000000001
6186 29.893000000000001 66.647000000000006
6187 73.480999999999995 28.053000000000001
6188 63.055 26.198
6189 60.996000000000002 4.5469999999999997
6190 20.277000000000001 22.257999999999999
6191 62.584000000000003 80.394999999999996
6192 72.534000000000006 85.311000000000007
6193 31.367999999999999 76.864999999999995
6194 69.021000000000001 78.094999999999999
6195 33.311 22.812999999999999
6196 22.513000000000002 62.405000000000001
6197 38.590000000000003 42.558
6198 23.931999999999999 61.811999999999998
6199 68.346999999999994 29.597000000000001
6200 65.372 26.777000000000001
6201 27.579000000000001 62.741
6202 32.024999999999999 15.766999999999999
6203 67.284000000000006 12.599
6204 35.341999999999999 21.503
6205 68.552999999999997 83.724000000000004
6206 22.079000000000001 64.929000000000002
6207 43.308999999999997 25.927
6208 69.620000000000005 82.046000000000006
6209 56.029000000000003 38.847999999999999
6210 26.353999999999999 29.414999999999999
6211 4.8940000000000001 76.668999999999997
6212 42.106000000000002 31.925999999999998
6213 68.146000000000001 37.347000000000001
6214 79.177999999999997 65.241
6215 29.405999999999999 33.563000000000002
6216 30.632999999999999 23.670999999999999
6217 50.927 31.718
6218 59.956000000000003 80.734999999999999
6219 16.917999999999999 69.792000000000002
6220 67.531000000000006 63.118000000000002
6221 57.454000000000001 39.787999999999997
6222 34.661999999999999 68.905000000000001
6223 66.254000000000005 28.266999999999999
6224 67.477999999999994 15.268000000000001
6225 88.599999999999994 84.319000000000003
6226 73.307000000000002 25.193999999999999
6227 65.5 19.236999999999998
6228 65.165000000000006 17.210000000000001
6229 61.319000000000003 77.281000000000006
6230 31.585999999999999 18.937000000000001
6231 27.173999999999999 71.206999999999994
6232 70.334000000000003 39.258000000000003
6233 33.268000000000001 35.119
6234 20.954999999999998 30.327999999999999
6235 70.846999999999994 90.394000000000005
6236 74.325000000000003 28.045000000000002
6237 25.446000000000002 69.870999999999995
6238 62.920000000000002 75.174000000000007
6239 61.628 29.766999999999999
6240 36.017000000000003 59.064
6241 40.231000000000002 55.493000000000002
6242 36.627000000000002 18.434999999999999
6243 70.587000000000003 33.890999999999998
6244 58.024000000000001 41.146999999999998
6245 55.929000000000002 72.504000000000005
6246 31.295000000000002 65.001999999999995
6247 56.552 25.718
6248 63.033000000000001 15.711
6249 63.518999999999998 80.760000000000005
6250 70.165999999999997 37.851999999999997
6251 13.683999999999999 70.361999999999995
6252 42.247 67.311000000000007
6253 15.541 64.975999999999999
6254 60.786999999999999 76.942999999999998
6255 67.525000000000006 82.891000000000005
6256 27.521000000000001 70.063999999999993
6257 79.218999999999994 81.400000000000006
6258 67.531000000000006 76.924000000000007
6259 16.033000000000001 68.524000000000001
6260 66.171999999999997 79.108000000000004
6261 73.484999999999999 86.614999999999995
6262 24.937000000000001 26.939
6263 59.423000000000002 35.341000000000001
6264 73.582999999999998 25.327999999999999
6265 38.646999999999998 35.795999999999999
6266 77.302999999999997 76.908000000000001
6267 76 18.881
6268 70.516999999999996 19.489000000000001
6269 52.389000000000003 83.587999999999994
6270 15.048999999999999 72.715000000000003
6271 63.323 74.491
6272 57.886000000000003 28.184999999999999
6273 61.802 72.912999999999997
6274 59.905000000000001 26.032
6275 71.182000000000002 70.444999999999993
6276 23.803999999999998 19.117000000000001
6277 71.322999999999993 93.013999999999996
6278 69.447999999999993 34.625
6279 68.427999999999997 25.786999999999999
6280 73.522000000000006 21.646000000000001
6281 25.747 46.540999999999997
6282 36.427999999999997 53.838000000000001
6283 13.483000000000001 63.581000000000003
6284 66.983999999999995 17.681000000000001
6285 62.747 82.394999999999996
6286 54.899999999999999 77.536000000000001
6287 44.320999999999998 25.376999999999999
6288 64.632999999999996 18.844999999999999
6289 73.626000000000005 21.478999999999999
6290 24.969999999999999 27.951000000000001
6291 77.326999999999998 79.798000000000002
6292 66.680000000000007 24.132999999999999
6293 13.337999999999999 73.341999999999999
6294 60.737000000000002 37.341000000000001
6295 61.826000000000001 31.797000000000001
6296 83.352000000000004 90.939999999999998
6297 62.332999999999998 20.516999999999999
6298 20.456 69.545000000000002
6299 75.632999999999996 76.855999999999995
6300 18.407 71.283000000000001
6301 74.834000000000003 30.106000000000002
6302 21.245000000000001 67.233000000000004
6303 20.251999999999999 72.292000000000002
6304 26.663 16.686
6305 32.215000000000003 73.167000000000002
6306 17.867999999999999 59.497
6307 60.488999999999997 83.623000000000005
6308 30.114000000000001 36.226999999999997
6309 62.719000000000001 20.216000000000001
6310 61.255000000000003 24.120000000000001
6311 24.102 31.588000000000001
6312 41.493000000000002 29.838000000000001
6313 70.956999999999994 88.076999999999998
6314 31.609000000000002 70.775999999999996
6315 56.101999999999997 29.120999999999999
6316 28.081 73.463999999999999
6317 25.686 10.462999999999999
6318 32.494999999999997 30.779
6319 25.013000000000002 20.271000000000001
6320 21.334 62.683999999999997
6321 24.806999999999999 73.379000000000005
6322 33.533999999999999 21.949999999999999
6323 29.393000000000001 74.129000000000005
6324 40.933 29.847999999999999
6325 58.530999999999999 23.309999999999999
6326 72.221000000000004 88.498999999999995
6327 32.761000000000003 41.999000000000002
6328 67.884 80.463999999999999
6329 27.256 34.481999999999999
6330 19.521999999999998 78.768000000000001
6331 64.587999999999994 78.992999999999995
6332 72.718999999999994 70.450000000000003
6333 22.289999999999999 32.253
6334 35.944000000000003 65.751999999999995
6335 62.006999999999998 81.799999999999997
6336 52.07 84.358000000000004
6337 55.106000000000002 33.810000000000002
6338 64.409000000000006 83.439999999999998
6339 79.581999999999994 68.623000000000005
6340 35.256 25.791
6341 71.623999999999995 30.521999999999998
6342 12.795999999999999 30.190999999999999
6343 68.734999999999999 84.733000000000004
6344 37.738999999999997 30.459
6345 69.052000000000007 64.847999999999999
6346 70.481999999999999 41.204999999999998
6347 60.329999999999998 66.480999999999995
6348 11.718999999999999 62.329000000000001
6349 26.327999999999999 64.257999999999996
6350 69.981999999999999 85.948999999999998
6351 63.276000000000003 19.538
6352 66.040999999999997 40.005000000000003
6353 43.448999999999998 23.873000000000001
6354 22.613 31.158999999999999
6355 49.951000000000001 72.906000000000006
6356 57.865000000000002 89.341999999999999
6357 69.715000000000003 79.495999999999995
6358 24.550999999999998 77.274000000000001
6359 10.688000000000001 67.308000000000007
6360 25.428999999999998 70.058999999999997
6361 67.787999999999997 60.637999999999998
6362 41.893999999999998 25.507999999999999
6363 32.411999999999999 25.52
6364 58.292999999999999 21.626000000000001
6365 65.329999999999998 10.204000000000001
6366 68.754999999999995 78.135000000000005
6367 23.402999999999999 74.728999999999999
6368 58.554000000000002 84.552000000000007
6369 28.512 26.917000000000002
6370 19.933 55.567999999999998
6371 82.164000000000001 77.239999999999995
6372 72.209999999999994 29.408000000000001
6373 28.925999999999998 70.751999999999995
6374 19.652000000000001 71.757999999999996
6375 78.665999999999997 80.132000000000005
6376 69.009 35.360999999999997
6377 28.155999999999999 61.308999999999997
6378 63.844000000000001 37.393999999999998
6379 28.802 37.729999999999997
6380 65.730000000000004 17.466000000000001
6381 58.841000000000001 37.414999999999999
6382 59.521999999999998 70.331999999999994
6383 25.800999999999998 80.994
6384 44.420999999999999 18.065000000000001
6385 57.738 25.155000000000001
6386 47.898000000000003 66.513999999999996
6387 20.632000000000001 73.930000000000007
6388 71.649000000000001 72.426000000000002
6389 15.739000000000001 24.593
6390 63.512999999999998 86.953000000000003
6391 32.859000000000002 29.023
6392 59.064999999999998 26.370000000000001
6393 22.459 37.768000000000001
6394 16.332999999999998 59.985999999999997
6395 60.850999999999999 69.070999999999998
6396 38.787999999999997 73.834999999999994
6397 63.112000000000002 73.462000000000003
6398 14.699999999999999 69.055999999999997
6399 19.652000000000001 74.144999999999996
6400 25.140999999999998 60.985999999999997
6401 10.712999999999999 65.366
6402 58.582999999999998 87.090000000000003
6403 16.309999999999999 58.369
6404 61.405999999999999 10.545
6405 18.023 23.120000000000001
6406 35.466999999999999 24.699000000000002
6407 64.028000000000006 56.941000000000003
6408 72.534999999999997 21.802
6409 19.327999999999999 20.835000000000001
6410 40.307000000000002 32.064
6411 62.262 31.106999999999999
6412 29.620000000000001 32.453000000000003
6413 54.435000000000002 25.492000000000001
6414 79.632999999999996 35.677999999999997
6415 57.670000000000002 23.393000000000001
6416 17.815999999999999 25.547999999999998
6417 76.528000000000006 73.863
6418 29.949000000000002 22.138999999999999
6419 43.732999999999997 40.914000000000001
6420 8.8870000000000005 12.813000000000001
6421 71.227000000000004 81.131
6422 57.497 26.678999999999998
6423 20.908999999999999 73.725999999999999
6424 80.572000000000003 72.572000000000003
6425 18.640999999999998 85.620999999999995
6426 67.786000000000001 79.994
6427 24.734000000000002 81.659999999999997
6428 66.718999999999994 82.930999999999997
6429 56.633000000000003 73.557000000000002
6430 19.042999999999999 16.282
6431 21.858000000000001 49.036999999999999
6432 62.447000000000003 26.913
6433 37.718000000000004 17.289999999999999
6434 64.915000000000006 62.975000000000001
6435 83.049000000000007 77.241
6436 46.113999999999997 40.509
6437 80.445999999999998 80.739000000000004
6438 54.335000000000001 13.935
6439 59.947000000000003 37.619999999999997
6440 64.387 19.277000000000001
6441 31.588000000000001 19.925999999999998
6442 32.433 25.007000000000001
6443 22.478999999999999 60.030000000000001
6444 67.626999999999995 66.251000000000005
6445 79.320999999999998 93.292000000000002
6446 60.908000000000001 10.194000000000001
6447 27.77 24.25
6448 79.927000000000007 93.304000000000002
6449 34.869999999999997 6.5670000000000002
6450 61.265000000000001 71.799000000000007
6451 54.786999999999999 18.713999999999999
6452 71.278999999999996 25.632999999999999
6453 41.444000000000003 20.395
6454 74.793000000000006 76.641000000000005
6455 61.051000000000002 32.448999999999998
6456 81.254000000000005 79.179000000000002
6457 21.963999999999999 63.630000000000003
6458 20.93 77.640000000000001
6459 28.367000000000001 75.685000000000002
6460 18.263999999999999 60.741999999999997
6461 68.478999999999999 21.193999999999999
6462 60.518999999999998 72.216999999999999
6463 52.433999999999997 26.459
6464 19.268999999999998 74.888000000000005
6465 34.421999999999997 41.311999999999998
6466 23.925999999999998 56.622999999999998
6467 62.329000000000001 73.668999999999997
6468 76.637 21.343
6469 17.053000000000001 51.130000000000003
6470 42.518999999999998 8.8800000000000008
6471 36.951000000000001 21.891999999999999
6472 57.372999999999998 34.567999999999998
6473 33.433999999999997 22.300000000000001
6474 58.475000000000001 12.029999999999999
6475 14.146000000000001 59.767000000000003
6476 22.725000000000001 72.900000000000006
6477 69.162999999999997 33.996000000000002
6478 45.323999999999998 34.045000000000002
6479 28.274000000000001 45.103000000000002
6480 69.170000000000002 75.872
6481 27.442 38.673999999999999
6482 70.560000000000002 75.674000000000007
6483 25.096 27.550999999999998
6484 15.051 71.192999999999998
6485 17.946000000000002 59.911000000000001
6486 32.462000000000003 60.701999999999998
6487 68.813999999999993 26.321999999999999
6488 60.658000000000001 37.508000000000003
6489 19.553999999999998 60.340000000000003
6490 13.792 65.052999999999997
6491 23.631 68.933000000000007
6492 63.380000000000003 26.353999999999999
6493 24.129999999999999 75.756
6494 18.263000000000002 21.071999999999999
6495 76.122 22.699999999999999
6496 56.206000000000003 24.056999999999999
6497 23.872 71.242999999999995
6498 59.884 82.379999999999995
6499 55.68 83.959999999999994
6500 75.501000000000005 70.459000000000003
6501 68.370999999999995 69.344999999999999
6502 19.423999999999999 66.296000000000006
6503 27.198 37.247999999999998
6504 18.797000000000001 29.129999999999999
6505 90.022000000000006 83.185000000000002
6506 71.501000000000005 75.522999999999996
6507 69.969999999999999 80.512
6508 30.260000000000002 68.010999999999996
6509 56.488 14.09
6510 66.527000000000001 19.366
6511 11.039 58.090000000000003
6512 59.003 17.983000000000001
6513 35.444000000000003 21.550000000000001
6514 78.843999999999994 35.914000000000001
6515 59.143000000000001 25.939
6516 68.144000000000005 79.748999999999995
6517 56.732999999999997 22.582999999999998
6518 32.567 28.343
6519 63.018000000000001 72.266000000000005
6520 44.289999999999999 8.4190000000000005
6521 16.875 57.668999999999997
6522 19.919 30.256
6523 18.928999999999998 23.068000000000001
6524 69.245000000000005 80.212000000000003
6525 67.652000000000001 85.861999999999995
6526 31.515999999999998 62.676000000000002
6527 8.8550000000000004 64.471000000000004
6528 39.110999999999997 61.310000000000002
6529 28.649000000000001 11.32
6530 68.364999999999995 82.364999999999995
6531 30.977 55.738
6532 60.883000000000003 31.341000000000001
6533 67.143000000000001 22.640000000000001
6534 31.446000000000002 47.874000000000002
6535 67.876000000000005 81.394999999999996
6536 15.574 46.883000000000003
6537 38.118000000000002 24.122
6538 57.996000000000002 29.733000000000001
6539 37.152999999999999 16.513000000000002
6540 64.296999999999997 83.816999999999993
6541 32.277999999999999 37.895000000000003
6542 28.178999999999998 44.101999999999997
6543 59.415999999999997 68.280000000000001
6544 28.724 19.513000000000002
6545 18.298999999999999 34.877000000000002
6546 20.675999999999998 52.767000000000003
6547 69.260000000000005 76.019999999999996
6548 77.025999999999996 14.775
6549 32.838000000000001 71.004999999999995
6550 33.222000000000001 11.848000000000001
6551 68.063999999999993 93.292000000000002
6552 14.57 60.174999999999997
6553 19.18 74.170000000000002
6554 25.356999999999999 69.081999999999994
6555 56.850999999999999 35.220999999999997
6556 12.536 28.991
6557 34.155999999999999 61.235999999999997
6558 20.823 42.283999999999999
6559 26.614000000000001 31.585000000000001
6560 67.393000000000001 27.959
6561 74.459999999999994 78.180999999999997
6562 64.126999999999995 16.184000000000001
6563 64.140000000000001 76.640000000000001
6564 70.692999999999998 98.168999999999997
6565 71.131 86.212999999999994
6566 21.789000000000001 64.460999999999999
6567 21.763999999999999 14.638
6568 26.768000000000001 35.453000000000003
6569 25.917000000000002 56.610999999999997
6570 66.483999999999995 13.847
6571 65.804000000000002 33.378
6572 9.6460000000000008 49.466000000000001
6573 33.133000000000003 25.050999999999998
6574 27.655999999999999 61.82
6575 69.082999999999998 77.971999999999994
6576 86.296000000000006 30.257000000000001
6577 42.353999999999999 30.564
6578 75.805000000000007 81.558999999999997
6579 70.462999999999994 85.881
6580 65.700000000000003 21.337
6581 75.043000000000006 65.673000000000002
6582 26.495000000000001 37.499000000000002
6583 43.884999999999998 16.858000000000001
6584 73.539000000000001 69.445999999999998
6585 59.776000000000003 22.398
6586 66.938999999999993 29.952999999999999
6587 34.520000000000003 27.045000000000002
6588 21.718 32.154000000000003
6589 63.359999999999999 28.629000000000001
6590 65.620999999999995 31.954000000000001
6591 33.555999999999997 55.131
6592 44.865000000000002 18.445
6593 19.501999999999999 70.007999999999996
6594 17.687999999999999 69.710999999999999
6595 70.007000000000005 91.203000000000003
6596 55.198 68.546000000000006
6597 61.527999999999999 29.690999999999999
6598 61.567999999999998 31.872
6599 27.803000000000001 25.149000000000001
6600 72.512 95.512
6601 67.040999999999997 14.118
6602 60.823 24.196000000000002
6603 31.507999999999999 17.629999999999999
6604 25.838999999999999 66.281999999999996
6605 50.841999999999999 25.937000000000001
6606 13.302 71.706999999999994
6607 63.57 45.933
6608 37.027000000000001 42.984000000000002
6609 21.231999999999999 26.469999999999999
6610 35.290999999999997 55.664999999999999
6611 38.569000000000003 61.987000000000002
6612 80.207999999999998 76.296000000000006
6613 77.727000000000004 61.898000000000003
6614 83.460999999999999 83.644999999999996
6615 59.716999999999999 86.75
6616 59.868000000000002 83.492000000000004
6617 29.065999999999999 32.784999999999997
6618 67.603999999999999 33.631999999999998
6619 60.290999999999997 68.355999999999995
6620 35.752000000000002 32.634
6621 35.356999999999999 19.332000000000001
6622 54.543999999999997 75.245000000000005
6623 26.370000000000001 79.241
6624 31.126000000000001 69.944000000000003
6625 33.712000000000003 22.760000000000002
6626 69.513999999999996 29.045000000000002
6627 79.238 80.635999999999996
6628 23.763000000000002 32.683999999999997
6629 77.399000000000001 70.965000000000003
6630 18.187000000000001 65.944000000000003
6631 44.545999999999999 25.914000000000001
6632 29.349 7.9770000000000003
6633 32.57 80.079999999999998
6634 69.037000000000006 23.847000000000001
6635 76.5 28.495000000000001
6636 70.361999999999995 40.872999999999998
6637 19.183 71.475999999999999
6638 70.927999999999997 84.507000000000005
6639 75.983999999999995 26.763000000000002
6640 21.614000000000001 33.279000000000003
6641 42.308 21.077999999999999
6642 15.682 65.509
6643 23.617000000000001 23.114000000000001
6644 66.709000000000003 30.209
6645 4.8460000000000001 67.498000000000005
6646 34.965000000000003 67.602000000000004
6647 17.838999999999999 66.820999999999998
6648 24.477 20.785
6649 64.951999999999998 31.91
6650 63.630000000000003 90.234999999999999
6651 73.563000000000002 84.751999999999995
6652 63.216000000000001 81.430999999999997
6653 24.934000000000001 51.884999999999998
6654 24.492000000000001 59.892000000000003
6655 74.914000000000001 94.320999999999998
6656 65.548000000000002 66.049999999999997
6657 62.753999999999998 86.534000000000006
6658 62.715000000000003 76.400999999999996
6659 20.437999999999999 74.596000000000004
6660 66.531000000000006 87.772000000000006
6661 16.454999999999998 86.968000000000004
6662 14.337999999999999 57.436999999999998
6663 41.558 21.076000000000001
6664 72.340000000000003 26.838000000000001
6665 15.364000000000001 63.776000000000003
6666 64.801000000000002 23.542999999999999
6667 42.594999999999999 80.939999999999998
6668 62.256 26.715
6669 24.968 18.451000000000001
6670 27.082000000000001 69.567999999999998
6671 18.388000000000002 61.640000000000001
6672 7.0720000000000001 51.161000000000001
6673 13.67 21.375
6674 26.373000000000001 30
6675 17.407 46.987000000000002
6676 31.146000000000001 10.568
6677 15.755000000000001 69.007999999999996
6678 15.010999999999999 76.405000000000001
6679 69.620999999999995 68.878
6680 70.741 19.271999999999998
6681 39.753 20.731000000000002
6682 23.186 70.834999999999994
6683 25.568000000000001 57.734999999999999
6684 54.079000000000001 74.230999999999995
6685 35.167000000000002 80.251000000000005
6686 72.090999999999994 20.576000000000001
6687 13.210000000000001 66.647000000000006
6688 12.755000000000001 77.197000000000003
6689 27.614000000000001 36.905999999999999
6690 29.042999999999999 37.619999999999997
6691 68.186000000000007 76.006
6692 35.594000000000001 22.914999999999999
6693 42.110999999999997 68.846999999999994
6694 53.018999999999998 92.114999999999995
6695 73.265000000000001 77.757000000000005
6696 59.677999999999997 15.956
6697 42.009 30.734999999999999
6698 65.713999999999999 84.668999999999997
6699 42.459000000000003 32.811999999999998
6700 76.670000000000002 42.314999999999998
6701 26.469000000000001 68.120000000000005
6702 64.162000000000006 60.988999999999997
6703 41.188000000000002 28.303999999999998
6704 72.613 15.452
6705 24.276 62.170999999999999
6706 68.388000000000005 60.951999999999998
6707 60.283000000000001 23.771000000000001
6708 74.491 30.091999999999999
6709 69.251000000000005 40.069000000000003
6710 57.654000000000003 16.178000000000001
6711 43.795000000000002 24.811
6712 66.055000000000007 85.790000000000006
6713 29.132999999999999 15.443
6714 13.390000000000001 69.787999999999997
6715 20.327999999999999 76.141000000000005
6716 29.462 11.066000000000001
6717 87.069000000000003 86.346000000000004
6718 85.784000000000006 71.572999999999993
6719 74.927999999999997 76.070999999999998
6720 31.324000000000002 64.289000000000001
6721 23.756 65.060000000000002
6722 29.167999999999999 18.369
6723 35.595999999999997 41.622999999999998
6724 66.387 22.911000000000001
6725 29.373999999999999 21.306999999999999
6726 45.823 18.652999999999999
6727 59.966000000000001 28.117000000000001
6728 71.918000000000006 78.248999999999995
6729 39.042999999999999 22.605
6730 62.462000000000003 22.359000000000002
6731 68.332999999999998 83.635999999999996
6732 71.400000000000006 82.891999999999996
6733 71.039000000000001 70.813999999999993
6734 19.800999999999998 54.466999999999999
6735 69.909999999999997 26.558
6736 32.286999999999999 63.353000000000002
6737 72.441999999999993 26.75
6738 45.280999999999999 42.411999999999999
6739 30.48 18.664999999999999
6740 78.207999999999998 18.352
6741 77.691000000000003 34.832999999999998
6742 70.599999999999994 21.234000000000002
6743 69.054000000000002 79.826999999999998
6744 24.25 64.043000000000006
6745 60.962000000000003 32.475000000000001
6746 37.067999999999998 38.799999999999997
6747 34.231999999999999 17.157
6748 23.666 27.024999999999999
6749 50.021999999999998 75.528999999999996
6750 44.917999999999999 23.149000000000001
6751 57.912999999999997 34.265000000000001
6752 32.816000000000003 36.457999999999998
6753 39.298000000000002 29.308
6754 15.567 21.302
6755 36.238999999999997 24.972999999999999
6756 66.864999999999995 85.153000000000006
6757 31.186 28.140000000000001
6758 77.560000000000002 17.071000000000002
6759 24.835999999999999 64.418999999999997
6760 86.388000000000005 33.887999999999998
6761 27.861999999999998 20.66
6762 71.509 88.989999999999995
6763 19.765999999999998 26.260999999999999
6764 34.049999999999997 36.433
6765 31.303000000000001 60.271000000000001
6766 23.888999999999999 29.109999999999999
6767 76.316999999999993 67.772000000000006
6768 90.317999999999998 76.995000000000005
6769 66.266999999999996 24.858000000000001
6770 34.034999999999997 21.396000000000001
6771 77.417000000000002 67.766000000000005
6772 33.584000000000003 20.195
6773 59.814999999999998 87.162999999999997
6774 19.789999999999999 66.194999999999993
6775 78.123999999999995 18.763000000000002
6776 35.527000000000001 20.812999999999999
6777 61.292999999999999 75.641000000000005
6778 65.084000000000003 35.534999999999997
6779 71.777000000000001 34.142000000000003
6780 71.355999999999995 75.394000000000005
6781 16.600000000000001 64.204999999999998
6782 25.443000000000001 49.658000000000001
6783 66.736999999999995 85.239999999999995
6784 37.877000000000002 35.186999999999998
6785 28.672000000000001 67.730000000000004
6786 57.356999999999999 23.321000000000002
6787 64.111000000000004 20.641999999999999
6788 60.075000000000003 10.446999999999999
6789 21.016999999999999 78.766999999999996
6790 59.305 69.826999999999998
6791 8.4749999999999996 71.477999999999994
6792 28.986999999999998 25.023
6793 24.111999999999998 80.983999999999995
6794 48.401000000000003 23.097999999999999
6795 38.143000000000001 32.511000000000003
6796 56.381999999999998 30.033000000000001
6797 23.747 65.882999999999996
6798 25.899000000000001 28.298999999999999
6799 0.63100000000000001 68.808999999999997
6800 27.888999999999999 23.103000000000002
6801 15.327999999999999 76.269999999999996
6802 61.414000000000001 29.739999999999998
6803 35.847000000000001 28.606000000000002
6804 24.603999999999999 64.361999999999995
6805 80.061999999999998 68.400000000000006
6806 61.478999999999999 19.199999999999999
6807 64.462000000000003 24.355
6808 43.152999999999999 35.716999999999999
6809 31.529 22.609999999999999
6810 66.816999999999993 26.847000000000001
6811 35.686999999999998 30.486000000000001
6812 73.387 84.423000000000002
6813 33.179000000000002 80.971000000000004
6814 56.115000000000002 28.047999999999998
6815 64.436000000000007 35.518000000000001
6816 76.971999999999994 25.138000000000002
6817 23.449999999999999 68.372
6818 37.177999999999997 33.088999999999999
6819 54.890000000000001 89.811000000000007
6820 26.591999999999999 65.659000000000006
6821 71.564999999999998 75.253
6822 28.312000000000001 79.611000000000004
6823 59.188000000000002 75.034000000000006
6824 59.909999999999997 17.460999999999999
6825 20.533999999999999 65.727999999999994
6826 31.059999999999999 20.004999999999999
6827 37.845999999999997 25.507999999999999
6828 25.463000000000001 4.415
6829 54.712000000000003 87.310000000000002
6830 19.576000000000001 62.167999999999999
6831 60.594000000000001 59.75
6832 58.673999999999999 22.649999999999999
6833 31.849 26.556999999999999
6834 68.623000000000005 72.706000000000003
6835 15.178000000000001 29.984000000000002
6836 31.356999999999999 14.952
6837 23.608000000000001 38.436
6838 52.088999999999999 27.501999999999999
6839 27.949999999999999 40.713000000000001
6840 64.105999999999995 19.332999999999998
6841 33.478999999999999 31.978000000000002
6842 22.120000000000001 65.858999999999995
6843 65.278000000000006 30.977
6844 32.433999999999997 25.859999999999999
6845 64.555000000000007 81.242999999999995
6846 59.924999999999997 83.299999999999997
6847 75.629999999999995 18.838999999999999
6848 16 63.310000000000002
6849 60.223999999999997 77.284999999999997
6850 30.385000000000002 64.609999999999999
6851 63.482999999999997 30.939
6852 18.722999999999999 19.082999999999998
6853 62.658000000000001 33.320999999999998
6854 31.466000000000001 33.122
6855 58.744999999999997 71.418999999999997
6856 20.398 64.438999999999993
6857 63.076000000000001 94.438999999999993
6858 67.363 33.689999999999998
6859 29.945 60.354999999999997
6860 67.724000000000004 24.587
6861 67.813999999999993 78.614000000000004
6862 78.129000000000005 67.957999999999998
6863 13.343999999999999 70.738
6864 63.606000000000002 81.683000000000007
6865 30.920999999999999 11.808
6866 24.317 67.814999999999998
6867 75.962999999999994 73.563999999999993
6868 33.073 75.646000000000001
6869 67.215000000000003 29.978999999999999
6870 24.664999999999999 27.675999999999998
6871 85.369 76.197999999999993
6872 25.327999999999999 67.411000000000001
6873 16.081 62.363
6874 26.055 55.320999999999998
6875 23.035 59.411000000000001
6876 21.780000000000001 46.350999999999999
6877 61.158999999999999 25.366
6878 14.172000000000001 64.554000000000002
6879 91.576999999999998 68.543999999999997
6880 62.634999999999998 80.262
6881 61.908000000000001 84.453000000000003
6882 70.225999999999999 41.692999999999998
6883 58.271999999999998 22.292000000000002
6884 22.143999999999998 35.911000000000001
6885 27.513999999999999 68.807000000000002
6886 21.183 16.495999999999999
6887 63.652000000000001 23.847999999999999
6888 5.6890000000000001 20.689
6889 70.444999999999993 30.129999999999999
6890 63.856000000000002 14.472
6891 28.215 81.817999999999998
6892 54.151000000000003 76.144000000000005
6893 55.213000000000001 84.170000000000002
6894 26.023 26.135000000000002
6895 55.801000000000002 28.998000000000001
6896 68.882000000000005 91.637
6897 81.849999999999994 88.391000000000005
6898 47.284999999999997 26.445
6899 71.469999999999999 78.950999999999993
6900 23.459 48.07
6901 32.719000000000001 24.138000000000002
6902 32.009999999999998 40.417999999999999
6903 78.631 84.382999999999996
6904 64.585999999999999 75.126999999999995
6905 29.448 33.168999999999997
6906 23.768999999999998 24.013000000000002
6907 30.213000000000001 36.649000000000001
6908 23.5 76.429000000000002
6909 65.834999999999994 71.042000000000002
6910 45.066000000000003 21.552
6911 64.367000000000004 27.148
6912 28.789999999999999 26.210000000000001
6913 58.218000000000004 12.593999999999999
6914 66.936999999999998 76.534000000000006
6915 26.713999999999999 1.159
6916 24.765000000000001 22.347999999999999
6917 66.852999999999994 38.905000000000001
6918 33.661999999999999 71.852999999999994
6919 22.713000000000001 23.672000000000001
6920 40.838999999999999 33.893000000000001
6921 73.819000000000003 85.010999999999996
6922 16.238 75.280000000000001
6923 25.984000000000002 74.212999999999994
6924 36.845999999999997 24.638000000000002
6925 64.513999999999996 17.087
6926 58.180999999999997 23.759
6927 61.058 12.032
6928 16.986999999999998 50.021999999999998
6929 56.973999999999997 14.201000000000001
6930 39.985999999999997 62.985999999999997
6931 28.058 57.442
6932 60.280999999999999 81.010000000000005
6933 61.508000000000003 63.240000000000002
6934 70.834000000000003 30.972999999999999
6935 59.305 22.559000000000001
6936 35.877000000000002 14.319000000000001
6937 73.438000000000002 88.370000000000005
6938 83.031999999999996 85.712000000000003
6939 28.805 24.641999999999999
6940 32.180999999999997 28.664999999999999
6941 26.382000000000001 59.122
6942 77.465999999999994 77.878
6943 67.001999999999995 37.515999999999998
6944 69.341999999999999 31.596
6945 81.421000000000006 28.039000000000001
6946 53.933 30.286999999999999
6947 25.716000000000001 77.093999999999994
6948 38.015999999999998 26.372
6949 65.641000000000005 80.079999999999998
6950 73.001999999999995 10.497
6951 41.451999999999998 24.591999999999999
6952 20.954999999999998 27.102
6953 68.191999999999993 77.792000000000002
6954 38.450000000000003 27.420000000000002
6955 74.376999999999995 76.131
6956 18.199000000000002 70.608999999999995
6957 75.165999999999997 90.201999999999998
6958 72.988 77.356999999999999
6959 17.800000000000001 23.062999999999999
6960 65.072000000000003 75.546000000000006
6961 62.902000000000001 79.200999999999993
6962 68.093000000000004 11.992000000000001
6963 68.200999999999993 68.067999999999998
6964 12.361000000000001 73.287000000000006
6965 54.845999999999997 73.605999999999995
6966 78.879000000000005 29.178000000000001
6967 25.823 16.491
6968 40.765999999999998 36.344000000000001
6969 34.030999999999999 71.331000000000003
6970 30.829999999999998 29.346
6971 56.543999999999997 27.239000000000001
6972 69.275000000000006 22.373000000000001
6973 34.005000000000003 52.966999999999999
6974 16.396000000000001 26.456
6975 34.216999999999999 62.93
6976 35.878 34.652000000000001
6977 70.153000000000006 81.584999999999994
6978 72.573999999999998 90.307000000000002
6979 30.446999999999999 73.738
6980 69.481999999999999 23.539000000000001
6981 71.694000000000003 80.962999999999994
6982 71.863 24.010999999999999
6983 16.047000000000001 44.000999999999998
6984 26.834 28.445
6985 69.543999999999997 30.966999999999999
6986 41.631999999999998 27.789999999999999
6987 45.137 23.800999999999998
6988 22.792000000000002 70.165000000000006
6989 73.224999999999994 78.326999999999998
6990 39.545999999999999 38.664000000000001
6991 69.171999999999997 29.986000000000001
6992 34.183 78.810000000000002
6993 72.165000000000006 78.072000000000003
6994 39.595999999999997 11.757999999999999
6995 72.084999999999994 21.664000000000001
6996 65.611000000000004 74.566999999999993
6997 30.138000000000002 27.280999999999999
6998 21.343 59.893999999999998
6999 78.775000000000006 94.489999999999995
7000 58.938000000000002 17.416
7001 63.328000000000003 77.915999999999997
7002 32.859000000000002 23.384
7003 72.120999999999995 26.382000000000001
7004 34.276000000000003 55.353999999999999
7005 65.650000000000006 31.530000000000001
7006 66.810000000000002 85.629999999999995
7007 70.700000000000003 21.045000000000002
7008 14.68 23.847999999999999
7009 64.712999999999994 66.977999999999994
7010 67.939999999999998 16.727
7011 66.75 32.427
7012 66.055999999999997 91.741
7013 60.683 79.941999999999993
7014 40.235999999999997 20.111000000000001
7015 52.631999999999998 22.753
7016 24.741 58.713000000000001
7017 20.103999999999999 57.484000000000002
7018 63.676000000000002 25.541
7019 28.696999999999999 24.934000000000001
7020 26.231999999999999 33.113999999999997
7021 72.501999999999995 32.881
7022 29.001000000000001 31.454000000000001
7023 41.856000000000002 59.923999999999999
7024 91.016000000000005 25.797000000000001
7025 22.805 64.731999999999999
7026 25.978999999999999 65.424000000000007
7027 14.430999999999999 63.640999999999998
7028 18.364999999999998 71.463999999999999
7029 28.018999999999998 18.102
7030 47.564999999999998 33.075000000000003
7031 20.105 44.607999999999997
7032 57.991 26.797999999999998
7033 34.490000000000002 70.054000000000002
7034 36.661999999999999 25.225999999999999
7035 15.77 24.128
7036 43.527999999999999 38.898000000000003
7037 49.843000000000004 68.903000000000006
7038 31.260000000000002 26.155000000000001
7039 39.146000000000001 23.372
7040 57.5 32.069000000000003
7041 30.050000000000001 29.469999999999999
7042 60.938000000000002 77.438999999999993
7043 59.652999999999999 28.419
7044 67.680999999999997 73.408000000000001
7045 63.656999999999996 27.917999999999999
7046 58.673999999999999 23.349
7047 67.314999999999998 80.995999999999995
7048 32.085999999999999 44.375
7049 75.111000000000004 22.390000000000001
7050 9.5389999999999997 52.933
7051 64.772000000000006 18.812999999999999
7052 9.1300000000000008 69.715999999999994
7053 56.073999999999998 24.199000000000002
7054 56.557000000000002 87.744
7055 34.491999999999997 32.076999999999998
7056 32.460999999999999 67.093000000000004
7057 17.829999999999998 74.260999999999996
7058 62.570999999999998 11.435
7059 72.795000000000002 64.730000000000004
7060 71.192999999999998 83.801000000000002
7061 57.945999999999998 31.396000000000001
7062 50.948 58.875
7063 60.898000000000003 28.366
7064 74.462999999999994 84.069999999999993
7065 58.728999999999999 12.769
7066 76.537999999999997 67.093000000000004
7067 16.981999999999999 61.539999999999999
7068 19.751999999999999 75.805000000000007
7069 39.616 35.527999999999999
7070 27.370000000000001 69.846000000000004
7071 45.174999999999997 34.393000000000001
7072 30.161999999999999 12.646000000000001
7073 64.209000000000003 21.992999999999999
7074 50.924999999999997 31.553000000000001
7075 16.238 60.179000000000002
7076 68.953000000000003 27.956
7077 23.372 59.304000000000002
7078 11.752000000000001 62.604999999999997
7079 38.255000000000003 33.872999999999998
7080 37.505000000000003 21.850000000000001
7081 13.696999999999999 80.265000000000001
7082 62.746000000000002 84.792000000000002
7083 18.422000000000001 69.516000000000005
7084 50.856999999999999 73.149000000000001
7085 20.812999999999999 75.849999999999994
7086 61.616999999999997 22.536999999999999
7087 32.701999999999998 21.123999999999999
7088 80.650999999999996 21.097000000000001
7089 69.751999999999995 32.530999999999999
7090 70.150999999999996 71.216999999999999
7091 20.614000000000001 33.442999999999998
7092 27.393999999999998 69.563000000000002
7093 35.502000000000002 29.942
7094 69.222999999999999 35.289000000000001
7095 72.194999999999993 19.140000000000001
7096 18.856000000000002 73.293999999999997
7097 74.188000000000002 70.325999999999993
7098 24.388000000000002 26.565999999999999
7099 74.015000000000001 60.161000000000001
7100 16.617000000000001 66.694999999999993
7101 69.138000000000005 16.425000000000001
7102 71.048000000000002 23.677
7103 45.585000000000001 76.771000000000001
7104 64.269999999999996 28.109000000000002
7105 18.367999999999999 77.299999999999997
7106 82.343000000000004 15.962
7107 25.981000000000002 2.0680000000000001
7108 72.768000000000001 33.844999999999999
7109 72.545000000000002 81.072999999999993
7110 11.276 75.727999999999994
7111 27.125 25.562000000000001
7112 27.945 75.147999999999996
7113 23.751999999999999 59.537999999999997
7114 25.989999999999998 72.863
7115 72.977000000000004 23.605
7116 74.659000000000006 32.210999999999999
7117 61.725000000000001 20.189
7118 34.415999999999997 25.186
7119 58.997 75.299000000000007
7120 65.256 76.564999999999998
7121 20.742999999999999 25.337
7122 73.605999999999995 53.341999999999999
7123 29.634 60.281999999999996
7124 21.126000000000001 64.257000000000005
7125 66.423000000000002 21.928999999999998
7126 68.183999999999997 18.640999999999998
7127 60.829999999999998 65.902000000000001
7128 26.777999999999999 29.998000000000001
7129 39.113 26.544
7130 27.260000000000002 25.335000000000001
7131 64.998999999999995 83.034000000000006
7132 22.501000000000001 22.783000000000001
7133 9.2710000000000008 63.293999999999997
7134 64.471999999999994 79.313000000000002
7135 35.113999999999997 29.376000000000001
7136 26.856000000000002 28.527999999999999
7137 55.960000000000001 8.9559999999999995
7138 59.283000000000001 10.535
7139 65.780000000000001 20.879000000000001
7140 60.436999999999998 63.893000000000001
7141 68.105000000000004 29.506
7142 30.949999999999999 43.811999999999998
7143 68.680999999999997 77.819000000000003
7144 28.573 38.378
7145 47.832000000000001 31.286000000000001
7146 63.807000000000002 79.560000000000002
7147 43.774000000000001 31.087
7148 21.405000000000001 70.364000000000004
7149 24.433 24.451000000000001
7150 27.754999999999999 17.167999999999999
7151 73.861000000000004 22.917999999999999
7152 68.132000000000005 27.488
7153 20.622 74.349000000000004
7154 24.742000000000001 65.849000000000004
7155 52.642000000000003 20.045999999999999
7156 89.486999999999995 72.963999999999999
7157 67.055000000000007 31.43
7158 13.869 64.754999999999995
7159 20.620999999999999 65.581000000000003
7160 33.030000000000001 27.016999999999999
7161 58.003 36.112000000000002
7162 77.180000000000007 81.992000000000004
7163 31.643999999999998 19.09
7164 6.96 59.097000000000001
7165 82.197999999999993 29.437000000000001
7166 64.433999999999997 10.547000000000001
7167 66.191000000000003 23.952999999999999
7168 61.576999999999998 21.661000000000001
7169 64.093000000000004 14.744
7170 17.792999999999999 68.034999999999997
7171 56.889000000000003 36.642000000000003
7172 31.655000000000001 18.597000000000001
7173 26.879999999999999 25.346
7174 82.793000000000006 81.552999999999997
7175 71.507000000000005 28.103999999999999
7176 36.609999999999999 61.604999999999997
7177 34.616 32.631999999999998
7178 65.141000000000005 26.126000000000001
7179 55.990000000000002 17.809000000000001
7180 32.731999999999999 7.8860000000000001
7181 56.698 34.552
7182 67.602999999999994 24.257000000000001
7183 24.265999999999998 37.664999999999999
7184 42.171999999999997 15.388
7185 24.760000000000002 70.603999999999999
7186 61.790999999999997 76.849000000000004
7187 65.853999999999999 73.491
7188 32.277999999999999 20.399999999999999
7189 18.859000000000002 67.552000000000007
7190 63.329999999999998 35.326999999999998
7191 76.152000000000001 20.948
7192 21.201000000000001 73.462000000000003
7193 72.908000000000001 26.837
7194 84.653000000000006 70.552000000000007
7195 77.772000000000006 90.346999999999994
7196 23.899000000000001 33.792999999999999
7197 70.215000000000003 72.766999999999996
7198 53.762999999999998 82.472999999999999
7199 75.524000000000001 79.731999999999999
7200 8.3840000000000003 73.543999999999997
7201 18.478000000000002 63.622999999999998
7202 75.489999999999995 38.640000000000001
7203 68.477000000000004 73.498000000000005
7204 63.837000000000003 97.012
7205 73.227000000000004 28.646999999999998
7206 31.440000000000001 22.861000000000001
7207 37.002000000000002 19.088999999999999
7208 70.716999999999999 28.599
7209 23.155999999999999 66.828999999999994
7210 75.012 83.590000000000003
7211 17.716000000000001 58.966000000000001
7212 73.605000000000004 85.353999999999999
7213 31.902999999999999 52.332000000000001
7214 36.835000000000001 17.763999999999999
7215 56.579999999999998 26.959
7216 38.993000000000002 33.920000000000002
7217 27.234000000000002 26.757000000000001
7218 43.838999999999999 27.771999999999998
7219 61.198999999999998 25.067
7220 68.867000000000004 16.745000000000001
7221 25.140000000000001 63.866999999999997
7222 28.952000000000002 73.536000000000001
7223 74.566000000000003 87.253
7224 39.884 57.180999999999997
7225 60.610999999999997 76.891999999999996
7226 24.123999999999999 49.182000000000002
7227 57.924999999999997 33.895000000000003
7228 61.207000000000001 24.954000000000001
7229 22.364000000000001 24.696999999999999
7230 66.114999999999995 32.101999999999997
7231 70.465000000000003 32.722000000000001
7232 23.079999999999998 32.82
7233 19.617000000000001 21.98
7234 19.050999999999998 60.621000000000002
7235 20.664999999999999 62.844999999999999
7236 62.137999999999998 83.274000000000001
7237 18.643000000000001 25.077000000000002
7238 26.678999999999998 67.116
7239 75.923000000000002 40.140999999999998
7240 30.388999999999999 73.513000000000005
7241 33.143000000000001 27.698
7242 24.882000000000001 65.204999999999998
7243 25.201000000000001 70.164000000000001
7244 19.913 81.298000000000002
7245 29.489999999999998 21.724
7246 27.661999999999999 30.925000000000001
7247 6.3739999999999997 23.693000000000001
7248 54.514000000000003 39.280999999999999
7249 20.024999999999999 70.632999999999996
7250 62.710999999999999 95.150999999999996
7251 27.733000000000001 18.468
7252 34.651000000000003 41.140000000000001
7253 27.882999999999999 25.678000000000001
7254 64.165999999999997 34.539000000000001
7255 66.316999999999993 31.337
7256 21.280999999999999 59.137999999999998
7257 61.045000000000002 88.215999999999994
7258 30.573 27.713000000000001
7259 69.629000000000005 79.534000000000006
7260 29.742999999999999 23.030000000000001
7261 70.278000000000006 68.775999999999996
7262 29.984000000000002 57.817999999999998
7263 22.527000000000001 66.305000000000007
7264 23.381 74.525999999999996
7265 72.576999999999998 85.087000000000003
7266 74.305000000000007 22.213999999999999
7267 65.278000000000006 66.522000000000006
7268 65.668000000000006 20.545999999999999
7269 84.846999999999994 19.306999999999999
7270 74.278999999999996 83.435000000000002
7271 72.180000000000007 84.813000000000002
7272 22.966000000000001 30.806999999999999
7273 59.82 81.614000000000004
7274 66.528000000000006 75.420000000000002
7275 22.821000000000002 65.756
7276 27.645 63.701000000000001
7277 66.513999999999996 19.015000000000001
7278 75.468999999999994 73.043999999999997
7279 73.924000000000007 90.016999999999996
7280 84.319000000000003 91.400999999999996
7281 65.388999999999996 34.008000000000003
7282 72.698999999999998 76.715999999999994
7283 67.489999999999995 6.4160000000000004
7284 57.07 18.178000000000001
7285 61.429000000000002 36.122
7286 23.082000000000001 72.772999999999996
7287 61.290999999999997 84.489000000000004
7288 51.317999999999998 71.436999999999998
7289 26.510000000000002 83.816000000000003
7290 21.846 24.638999999999999
7291 62.656999999999996 35.134999999999998
7292 62.945 27.248999999999999
7293 32.521999999999998 43.369999999999997
7294 75.444000000000003 98.811999999999998
7295 40.436 25.823
7296 15.032999999999999 68.278000000000006
7297 65.897999999999996 65.469999999999999
7298 57.255000000000003 41.238
7299 66.409999999999997 62.636000000000003
7300 28.550000000000001 61.823999999999998
7301 10.31 70.010000000000005
7302 41.978999999999999 29.782
7303 62.695 13.298
7304 39.802 31.471
7305 3.48 65.997
7306 35.156999999999996 24.117000000000001
7307 31.045000000000002 25.760999999999999
7308 37.914999999999999 24.126000000000001
7309 41.475000000000001 20.222999999999999
7310 24.800999999999998 61.573
7311 23.956 57.963000000000001
7312 64.037999999999997 83.346999999999994
7313 21.463999999999999 61.045999999999999
7314 28.123999999999999 34.158999999999999
7315 70.893000000000001 28.824000000000002
7316 58.509999999999998 17.969999999999999
7317 20.879999999999999 74.061999999999998
7318 18.045000000000002 60.716000000000001
7319 20.643000000000001 74.918000000000006
7320 31.379999999999999 32.508000000000003
7321 12.048999999999999 57.302
7322 70.870000000000005 94.477999999999994
7323 32.219000000000001 33.880000000000003
7324 39.314999999999998 29.591999999999999
7325 58.204999999999998 84.305000000000007
7326 75.055999999999997 70.649000000000001
7327 69.978999999999999 74.468999999999994
7328 35.988 7.0940000000000003
7329 32.622999999999998 20.242000000000001
7330 77.234999999999999 79.926000000000002
7331 71.521000000000001 83.397000000000006
7332 16.885000000000002 65.185000000000002
7333 32.972999999999999 34.649000000000001
7334 69.435000000000002 13.69
7335 59.802 74.629000000000005
7336 61.625 39.999000000000002
7337 89.900000000000006 61.875
7338 68.947000000000003 25.274000000000001
7339 23.088999999999999 31.007999999999999
7340 41.201000000000001 31.465
7341 34.116999999999997 35.149000000000001
7342 70.676000000000002 76.777000000000001
7343 41.792000000000002 27.41
7344 24.564 67.164000000000001
7345 17.222000000000001 24.265999999999998
7346 61.393000000000001 21.622
7347 34.609999999999999 31.352
7348 43.021000000000001 62.841999999999999
7349 61.424999999999997 26.584
7350 83.382000000000005 86.045000000000002
7351 22.529 53.875
7352 83.587000000000003 86.039000000000001
7353 75.971000000000004 18.071999999999999
7354 57.603000000000002 84.471999999999994
7355 65.501999999999995 26.303999999999998
7356 38.020000000000003 29.103000000000002
7357 47.140999999999998 61.887999999999998
7358 23.456 74.774000000000001
7359 70.025000000000006 27.093
7360 17.132999999999999 77.762
7361 14.464 67.590000000000003
7362 19.274000000000001 50.340000000000003
7363 26.890000000000001 34.439999999999998
7364 72.781000000000006 75.126999999999995
7365 27.724 27.213000000000001
7366 19.309000000000001 24.911000000000001
7367 34.055 37.427
7368 23.718 38.773000000000003
7369 62.240000000000002 84.896000000000001
7370 51.435000000000002 23.081
7371 31.963000000000001 17.32
7372 73.048000000000002 29.356000000000002
7373 21.613 61.512
7374 26.390000000000001 15.586
7375 58.076999999999998 23.971
7376 29.321000000000002 26.925999999999998
7377 67.275999999999996 81.856999999999999
7378 68.450000000000003 24.492000000000001
7379 27.920000000000002 20.658999999999999
7380 66.709000000000003 78.043000000000006
7381 20.818999999999999 70.781000000000006
7382 28.402000000000001 23.788
7383 75.283000000000001 22.152000000000001
7384 76.632999999999996 66.474999999999994
7385 40.872999999999998 29.869
7386 12.028 33.219999999999999
7387 78.218999999999994 18.507999999999999
7388 34.043999999999997 22.969000000000001
7389 79.155000000000001 80.599000000000004
7390 34.390999999999998 8.6120000000000001
7391 32.091000000000001 25.821999999999999
7392 64.040999999999997 19.501999999999999
7393 35.058 28.282
7394 59.450000000000003 22.199000000000002
7395 35.841000000000001 19.257000000000001
7396 62.880000000000003 34.975999999999999
7397 54.57 22.574999999999999
7398 61.201999999999998 81.641999999999996
7399 19.396000000000001 29.509
7400 55.549999999999997 33.472999999999999
7401 63.889000000000003 33.229999999999997
7402 86.040999999999997 83.683999999999997
7403 54.704999999999998 17.846
7404 21.567 55.560000000000002
7405 36.709000000000003 12.164999999999999
7406 68.070999999999998 21.395
7407 45.026000000000003 25.390000000000001
7408 77.242000000000004 83.435000000000002
7409 27.119 18.812999999999999
7410 55.024000000000001 70.619
7411 75.555000000000007 62.399000000000001
7412 21.439 55.707000000000001
7413 21.460000000000001 66.605000000000004
7414 51.970999999999997 24.119
7415 76.763000000000005 35.951999999999998
7416 38.762 16.199000000000002
7417 63.436 86.872
7418 54.182000000000002 15.833
7419 28.420000000000002 28.391999999999999
7420 23.780000000000001 61.628
7421 69.477999999999994 70.566000000000003
7422 33.006999999999998 31.925000000000001
7423 50.088000000000001 18.600999999999999
7424 33.256999999999998 24.218
7425 63.345999999999997 18.890000000000001
7426 66.239999999999995 20.475000000000001
7427 25.190999999999999 28.052
7428 16.417999999999999 77.228999999999999
7429 71.894000000000005 37.387
7430 60.661999999999999 38.645000000000003
7431 21.43 67.558000000000007
7432 25.507000000000001 33.972999999999999
7433 2.5 65.471000000000004
7434 76.537999999999997 25.100000000000001
7435 67.039000000000001 47.290999999999997
7436 27.454999999999998 34.823999999999998
7437 75.045000000000002 85.509
7438 40.493000000000002 65.885999999999996
7439 16.521999999999998 73.042000000000002
7440 11.451000000000001 61.938000000000002
7441 73.616 79.105999999999995
7442 19.428000000000001 75.388999999999996
7443 38.368000000000002 26.52
7444 35.323 54.057000000000002
7445 63.210000000000001 81.186999999999998
7446 57.314 22.047999999999998
7447 26.103999999999999 65.320999999999998
7448 26.452999999999999 53.494
7449 64.388999999999996 15.289
7450 57.875 80.602999999999994
7451 59.914999999999999 28.748999999999999
7452 18.094000000000001 65.763999999999996
7453 22.510000000000002 58.908000000000001
7454 38.795999999999999 27.138000000000002
7455 87.850999999999999 87.570999999999998
7456 66.888999999999996 85.632999999999996
7457 25.391999999999999 38.390999999999998
7458 60.313000000000002 63.859999999999999
7459 24.367000000000001 69.411000000000001
7460 85.811999999999998 16.562999999999999
7461 62.494999999999997 31.943999999999999
7462 25.145 70.957999999999998
7463 32.984999999999999 63.046999999999997
7464 25.727 58.618000000000002
7465 38.409999999999997 35.411999999999999
7466 60.795999999999999 30.268999999999998
7467 37.662999999999997 16.048999999999999
7468 61.475999999999999 29.390000000000001
7469 70.573999999999998 36.738
7470 72.117999999999995 80.448999999999998
7471 17.042000000000002 67.332999999999998
7472 70.454999999999998 64.247
7473 61.808999999999997 30.620000000000001
7474 60.351999999999997 13.455
7475 62.146000000000001 89.587999999999994
7476 18.774000000000001 48.756999999999998
7477 19.108000000000001 65.298000000000002
7478 33.215000000000003 60.448
7479 64.222999999999999 78.134
7480 75.379000000000005 84.352000000000004
7481 25.911000000000001 64.436000000000007
7482 60.932000000000002 29.77
7483 56.439999999999998 30.934000000000001
7484 7.4950000000000001 54.395000000000003
7485 38.122 23.420999999999999
7486 46.354999999999997 65.430999999999997
7487 26.245999999999999 25.350000000000001
7488 79.881 18.241
7489 19.734000000000002 66.447999999999993
7490 28.507999999999999 66.757000000000005
7491 69.555000000000007 91.429000000000002
7492 52.716000000000001 83.963999999999999
7493 29.594000000000001 60.256999999999998
7494 28.698 67.926000000000002
7495 29.605 18.260000000000002
7496 32.372999999999998 33.259999999999998
7497 34.450000000000003 26.474
7498 73.613 82.427000000000007
7499 12.068 27.207000000000001
7500 59.639000000000003 79.858000000000004
7501 40.259 35.036000000000001
7502 36.877000000000002 28.102
7503 71.581000000000003 92.049999999999997
7504 41.545000000000002 34.490000000000002
7505 63.387999999999998 77.903999999999996
7506 69.165999999999997 33.173000000000002
7507 21.137 67.679000000000002
7508 29.427 26.143999999999998
7509 20.879000000000001 57.625999999999998
7510 43.197000000000003 28.108000000000001
7511 65.683000000000007 35.066000000000003
7512 66.355999999999995 82.447999999999993
7513 19.797000000000001 36.049999999999997
7514 58.058 19.760999999999999
7515 45.859999999999999 87.165999999999997
7516 75.983999999999995 67.102999999999994
7517 45.585000000000001 12.115
7518 41.046999999999997 72.694000000000003
7519 46.265000000000001 31.620000000000001
7520 72.882000000000005 19.760999999999999
7521 22.689 63.658000000000001
7522 33.259999999999998 27.704000000000001
7523 59.863 25.905000000000001
7524 74.941999999999993 24.321000000000002
7525 69.537000000000006 36.298999999999999
7526 18.914000000000001 61.390999999999998
7527 23.651 73.941999999999993
7528 78.587999999999994 30.954000000000001
7529 21.617000000000001 25.896000000000001
7530 73.661000000000001 81.805000000000007
7531 33.816000000000003 47.619
7532 18.117999999999999 17.943999999999999
7533 59.037999999999997 76.382000000000005
7534 68.001000000000005 17.02
7535 23.456 16.718
7536 18.268000000000001 61.158000000000001
7537 72.709999999999994 77.754000000000005
7538 54.188000000000002 76.972999999999999
7539 59.426000000000002 76.459000000000003
7540 16.166 84.304000000000002
7541 60.887999999999998 75.781000000000006
7542 15.513999999999999 21.039999999999999
7543 58.164000000000001 31.047000000000001
7544 67.793999999999997 95.302000000000007
7545 37.436 39.332000000000001
7546 66.081999999999994 69.415999999999997
7547 30.486999999999998 32.143000000000001
7548 9.5869999999999997 58.414999999999999
7549 10.94 20.170999999999999
7550 18.329000000000001 15.532
7551 26.224 38.140000000000001
7552 34.207000000000001 31.704999999999998
7553 75.176000000000002 22.271000000000001
7554 36.417999999999999 76.388999999999996
7555 72.076999999999998 32.475000000000001
7556 32.293999999999997 32.170999999999999
7557 58.715000000000003 92.780000000000001
7558 65.441000000000003 11.252000000000001
7559 27.869 31.998000000000001
7560 76.055999999999997 80.969999999999999
7561 21.634 71.477999999999994
7562 56.094999999999999 67.006
7563 22.271999999999998 63.584000000000003
7564 46.351999999999997 15.455
7565 38.746000000000002 30.283000000000001
7566 21.937999999999999 77.274000000000001
7567 32.883000000000003 23.254999999999999
7568 16.824000000000002 20.998000000000001
7569 15.263999999999999 71.876999999999995
7570 26.645 27.785
7571 65.537999999999997 73.325999999999993
7572 64.456000000000003 17.497
7573 66.890000000000001 71.319000000000003
7574 70.596999999999994 93.106999999999999
7575 60.091000000000001 15.287000000000001
7576 17.736000000000001 66.497
7577 21.866 62.951000000000001
7578 28.672999999999998 22.981999999999999
7579 69.766999999999996 84.918000000000006
7580 35.956000000000003 56.57
7581 78.617000000000004 86.638999999999996
7582 22.530999999999999 59.311999999999998
7583 16.984000000000002 62.612000000000002
7584 73.466999999999999 27.728999999999999
7585 69.558000000000007 18.459
7586 28.548999999999999 43.170999999999999
7587 32.579999999999998 17.448
7588 34.222000000000001 29.695
7589 59.648000000000003 21.222000000000001
7590 5.1189999999999998 73.382000000000005
7591 19.693000000000001 28.675999999999998
7592 52.195 85.700999999999993
7593 51.456000000000003 72.507000000000005
7594 28.053999999999998 29.981000000000002
7595 58.981000000000002 24.074000000000002
7596 17.128 26.829000000000001
7597 23.001999999999999 70.117999999999995
7598 62.478999999999999 20.178999999999998
7599 35.253 18.975000000000001
7600 59.200000000000003 27.492000000000001
7601 68.997 84.799000000000007
7602 62.749000000000002 30.731000000000002
7603 27.106999999999999 26.207999999999998
7604 20.974 61.984000000000002
7605 80.944000000000003 81.983000000000004
7606 21.870999999999999 64.257999999999996
7607 22.995999999999999 77.159999999999997
7608 29.352 67.665999999999997
7609 29.131 55.381999999999998
7610 32.103999999999999 23.963999999999999
7611 69.534000000000006 96.685000000000002
7612 55.170999999999999 40.841000000000001
7613 28.308 28.821000000000002
7614 75.543999999999997 83.784000000000006
7615 37.780999999999999 31.452999999999999
7616 53.450000000000003 85.906999999999996
7617 30.606000000000002 29.530999999999999
7618 69.843999999999994 29.579999999999998
7619 62.752000000000002 12.566000000000001
7620 75.228999999999999 73.721999999999994
7621 20.387 34.189
7622 64.411000000000001 79.293999999999997
7623 66.397999999999996 21.123000000000001
7624 67.671999999999997 98.900000000000006
7625 27.001000000000001 48.878999999999998
7626 65.603999999999999 28.606000000000002
7627 33.280000000000001 16.817
7628 62.122999999999998 35.076999999999998
7629 28.962 31.157
7630 65.031000000000006 32.787999999999997
7631 24.148 56.497
7632 36.747999999999998 38.853999999999999
7633 25.324000000000002 23.452999999999999
7634 25.838999999999999 71.143000000000001
7635 27.890999999999998 27.571999999999999
7636 72.021000000000001 92.325000000000003
7637 73.259 83.039000000000001
7638 17.401 30.460000000000001
7639 76.418999999999997 31.640999999999998
7640 30.599 29.994
7641 27.957999999999998 70.793000000000006
7642 40.884 68.823999999999998
7643 28.818999999999999 23.201000000000001
7644 70.289000000000001 17.154
7645 70.132000000000005 63.843000000000004
7646 53.262 23.998999999999999
7647 31.641999999999999 27.422000000000001
7648 25.774999999999999 59.975000000000001
7649 12.545999999999999 64.644999999999996
7650 78.191000000000003 15.842000000000001
7651 78.579999999999998 94.653000000000006
7652 63.103000000000002 84.789000000000001
7653 54.012 72.524000000000001
7654 19.593 31.210999999999999
7655 35.067999999999998 18.120000000000001
7656 65.837000000000003 33.134
7657 59.015999999999998 77.328000000000003
7658 68.656999999999996 24.628
7659 40.091999999999999 22.419
7660 72.359999999999999 78.828000000000003
7661 62.316000000000003 78.384
7662 32.246000000000002 32.118000000000002
7663 32.951000000000001 81.381
7664 55.926000000000002 23.449999999999999
7665 11.455 67.325000000000003
7666 27.510999999999999 61.198
7667 83.918999999999997 71.284999999999997
7668 22.481000000000002 60.969000000000001
7669 29.901 40.423999999999999
7670 35.002000000000002 20.318000000000001
7671 62.429000000000002 28.120999999999999
7672 70.370999999999995 25.015999999999998
7673 72.131 79.873000000000005
7674 26.091999999999999 33.067
7675 69.822999999999993 68.561000000000007
7676 4.931 67.397999999999996
7677 16.385000000000002 70.311000000000007
7678 32.430999999999997 34.438000000000002
7679 29.308 30.073
7680 74.031999999999996 81.816000000000003
7681 26.286000000000001 62.426000000000002
7682 23.766999999999999 32.183
7683 60.906999999999996 28.625
7684 63.18 75.209999999999994
7685 64.539000000000001 30.533000000000001
7686 35.860999999999997 33.481000000000002
7687 57.951000000000001 39.549999999999997
7688 61.284999999999997 79.445999999999998
7689 55.140999999999998 27.646000000000001
7690 29.344999999999999 22.463000000000001
7691 30.158000000000001 73.316999999999993
7692 25.242000000000001 54.591999999999999
7693 66.325000000000003 24.158000000000001
7694 21.315000000000001 68.346000000000004
7695 68.665999999999997 76.036000000000001
7696 40.095999999999997 33.564
7697 80.834999999999994 35.734000000000002
7698 16.352 69.004000000000005
7699 32.625 25.219999999999999
7700 68.022999999999996 82.034000000000006
7701 22.268000000000001 30.552
7702 72.796000000000006 67.819000000000003
7703 74.566000000000003 73.545000000000002
7704 61.811999999999998 93.920000000000002
7705 21.390999999999998 63.024000000000001
7706 37.271999999999998 23.029
7707 33.332999999999998 58.601999999999997
7708 30.864999999999998 27.588999999999999
7709 82.436000000000007 71.337000000000003
7710 71.552999999999997 16.800000000000001
7711 24.507999999999999 79.802999999999997
7712 37.700000000000003 26.783000000000001
7713 30.259 62.801000000000002
7714 73.741 85.938000000000002
7715 73.778000000000006 35.43
7716 21.145 78.549999999999997
7717 76.468999999999994 69.006
7718 54.762999999999998 28.850999999999999
7719 22.445 18.199999999999999
7720 52.625 83.200999999999993
7721 24.396000000000001 27.922000000000001
7722 9.8300000000000001 60.814999999999998
7723 49.777000000000001 11.099
7724 78.590000000000003 13.682
7725 75.167000000000002 74.150000000000006
7726 35.634999999999998 73.001000000000005
7727 72.885000000000005 17.753
7728 72.870000000000005 28.193000000000001
7729 37.186999999999998 31.747
7730 59.107999999999997 33.399000000000001
7731 31.140999999999998 38.149000000000001
7732 20.902999999999999 66.531000000000006
7733 36.652000000000001 26.547000000000001
7734 30.425999999999998 75.212999999999994
7735 78.863 71.977000000000004
7736 36.600000000000001 34.055999999999997
7737 29.341000000000001 59.619999999999997
7738 73.171000000000006 82.573999999999998
7739 71.864000000000004 78.655000000000001
7740 68.855999999999995 86.045000000000002
7741 37.921999999999997 33.113999999999997
7742 66.632999999999996 39.359999999999999
7743 37.773000000000003 24.652999999999999
7744 38.457000000000001 16.786000000000001
7745 25.652000000000001 21.812000000000001
7746 58.639000000000003 33.755000000000003
7747 80.043000000000006 69.680000000000007
7748 30.390000000000001 18.706
7749 8.7949999999999999 54.993000000000002
7750 65.534999999999997 82.734999999999999
7751 75.251000000000005 24.138999999999999
7752 65.046000000000006 21.285
7753 16.696999999999999 73.564999999999998
7754 51.308999999999997 18.632999999999999
7755 65.587000000000003 18.373999999999999
7756 69.456000000000003 72.308000000000007
7757 71.379999999999995 19.532
7758 23.588999999999999 58.884
7759 24.117999999999999 66.885000000000005
7760 29.678999999999998 21.634
7761 25.309000000000001 20.166
7762 28.478000000000002 80.323999999999998
7763 28.460999999999999 60.268999999999998
7764 27.187999999999999 32.274000000000001
7765 76.923000000000002 29.367999999999999
7766 22.951000000000001 53.456000000000003
7767 58.284999999999997 35.606999999999999
7768 73.703000000000003 76.406999999999996
7769 37.159999999999997 20.111000000000001
7770 24.695 42.273000000000003
7771 62.917000000000002 25.998000000000001
7772 63.676000000000002 30.283000000000001
7773 74.254000000000005 73.308000000000007
7774 19.27 70.519999999999996
7775 53.902999999999999 32.100000000000001
7776 29.041 24.664000000000001
7777 57.543999999999997 13.608000000000001
7778 40.648000000000003 18.693999999999999
7779 24.143999999999998 26.969000000000001
7780 59.052999999999997 28.494
7781 29.378 24.68
7782 12.561999999999999 66.397999999999996
7783 25.602 26.838999999999999
7784 70.415999999999997 87.170000000000002
7785 64.486999999999995 70.926000000000002
7786 33.880000000000003 56.658000000000001
7787 65.040999999999997 39.186999999999998
7788 20.798999999999999 67.033000000000001
7789 67.411000000000001 36.372999999999998
7790 53.878 24.401
7791 53.859000000000002 29.303000000000001
7792 72.191000000000003 26.134
7793 72.332999999999998 86.414000000000001
7794 73.262 24.977
7795 11.212999999999999 65.727999999999994
7796 67.799999999999997 80.510999999999996
7797 35.063000000000002 29.867999999999999
7798 29.736999999999998 33.732999999999997
7799 25.629000000000001 56.415999999999997
7800 12.867000000000001 74.111000000000004
7801 70.314999999999998 26.202000000000002
7802 70.385999999999996 22.614000000000001
7803 28.335000000000001 63.405999999999999
7804 32.741 36.304000000000002
7805 30.013999999999999 54.061999999999998
7806 64.811000000000007 83.346000000000004
7807 32.781999999999996 63.228000000000002
7808 28.183 23.690000000000001
7809 33.616999999999997 83.531999999999996
7810 23.402000000000001 57.308
7811 28.949999999999999 48.93
7812 56.523000000000003 70.546999999999997
7813 28.503 62.746000000000002
7814 67.159999999999997 23.341000000000001
7815 21.901 34.268000000000001
7816 23.738 38.805999999999997
7817 68.329999999999998 85.826999999999998
7818 33.551000000000002 66.120999999999995
7819 23.960000000000001 22.757999999999999
7820 43.677 26.327000000000002
7821 54.07 71.314999999999998
7822 63.575000000000003 77.132000000000005
7823 76.873999999999995 78.108999999999995
7824 32.747999999999998 63.206000000000003
7825 32.868000000000002 28.553000000000001
7826 35.353999999999999 39.857999999999997
7827 7.6609999999999996 56.749000000000002
7828 34.292999999999999 28.895
7829 31.399999999999999 76.462000000000003
7830 27.949999999999999 38.430999999999997
7831 29.260999999999999 78.796000000000006
7832 22.486000000000001 19.811
7833 30.346 46.020000000000003
7834 19.521999999999998 56.097999999999999
7835 27.834 56.591000000000001
7836 22.847999999999999 65.734999999999999
7837 54.216000000000001 83.786000000000001
7838 22.923999999999999 41.271000000000001
7839 19.605 58.267000000000003
7840 67.239000000000004 67.370000000000005
7841 23.736999999999998 63.814999999999998
7842 28.350999999999999 22.416
7843 8.0670000000000002 69.091999999999999
7844 75.613 70.179000000000002
7845 67.859999999999999 28.181000000000001
7846 71.394999999999996 31.963000000000001
7847 62.948999999999998 70.018000000000001
7848 26.864000000000001 70.334999999999994
7849 33.185000000000002 32.439
7850 76.900999999999996 74.918999999999997
7851 63.161999999999999 18.893999999999998
7852 20.984000000000002 64.974999999999994
7853 59.067 26.460000000000001
7854 73.287999999999997 81.396000000000001
7855 32.491999999999997 32.432000000000002
7856 17.327999999999999 64.626000000000005
7857 10.098000000000001 66.060000000000002
7858 32.564 36.539000000000001
7859 60.851999999999997 94.412000000000006
7860 73.581999999999994 21.248999999999999
7861 15.109 68.798000000000002
7862 64.296999999999997 67.043999999999997
7863 15.209 63.627000000000002
7864 23.513999999999999 74.650999999999996
7865 70.807000000000002 29.928999999999998
7866 78.683000000000007 69.829999999999998
7867 20.445 74.997
7868 73.701999999999998 83.171999999999997
7869 54.598999999999997 24.811
7870 57.631999999999998 37.384
7871 73.111000000000004 79.254000000000005
7872 29.719000000000001 18.516999999999999
7873 69.182000000000002 75.218000000000004
7874 13.214 59.033000000000001
7875 22.952000000000002 12.917
7876 79.614999999999995 72.382000000000005
7877 61.359000000000002 22.087
7878 68.754000000000005 88.819000000000003
7879 29.741 56.225999999999999
7880 69.927000000000007 85.796999999999997
7881 63.213999999999999 15.875999999999999
7882 59.194000000000003 23.616
7883 63.783999999999999 73.159999999999997
7884 22.064 69.415999999999997
7885 23.151 21.175000000000001
7886 32.564 39.311999999999998
7887 40.850000000000001 26.298999999999999
7888 78.533000000000001 89.051000000000002
7889 22.885999999999999 24.440999999999999
7890 77.233000000000004 14.513999999999999
7891 64.254000000000005 24.713999999999999
7892 69.189999999999998 15.521000000000001
7893 62.634999999999998 19.911999999999999
7894 12.852 72.728999999999999
7895 28.946000000000002 81.298000000000002
7896 70.691999999999993 92.450999999999993
7897 64.790999999999997 30.641999999999999
7898 21.318999999999999 53.225999999999999
7899 33.740000000000002 67.048000000000002
7900 55.162999999999997 28.827000000000002
7901 64.027000000000001 25.864000000000001
7902 68.596999999999994 78.397000000000006
7903 20.297000000000001 54.170999999999999
7904 35.658000000000001 32.795999999999999
7905 70.263999999999996 35.738
7906 72.894000000000005 72.143000000000001
7907 77.474000000000004 66.596000000000004
7908 16.927 70.644000000000005
7909 17.471 54.027999999999999
7910 18.739999999999998 18.920000000000002
7911 72.396000000000001 34.029000000000003
7912 51.542999999999999 51.649000000000001
7913 20.571000000000002 36.640000000000001
7914 62.893000000000001 23.449000000000002
7915 18.102 73.483999999999995
7916 33.088000000000001 32.716999999999999
7917 66.314999999999998 72.709000000000003
7918 28.155000000000001 52.600999999999999
7919 39.131 12.855
7920 1.6080000000000001 63.162999999999997
7921 67.462999999999994 73.055999999999997
7922 21.751999999999999 59.472999999999999
7923 64.954999999999998 93.683999999999997
7924 73.322999999999993 70.191000000000003
7925 17.573 65.558999999999997
7926 59.335000000000001 17.469999999999999
7927 21.097999999999999 68.891999999999996
7928 16.137 64.721999999999994
7929 64.688999999999993 86.012
7930 71.808000000000007 81.417000000000002
7931 35.456000000000003 26.216000000000001
7932 64.287000000000006 31.254000000000001
7933 23.117000000000001 13.271000000000001
7934 42.264000000000003 15.880000000000001
7935 68.766000000000005 30.350999999999999
7936 10.874000000000001 71.527000000000001
7937 5.8520000000000003 65.509
7938 34.003 14.635999999999999
7939 22.550000000000001 62.993000000000002
7940 27.619 68.861000000000004
7941 57.549999999999997 79.525000000000006
7942 64.932000000000002 70.807000000000002
7943 16.466999999999999 68.367000000000004
7944 33.240000000000002 28.670000000000002
7945 26.946999999999999 72.688999999999993
7946 68.942999999999998 70.513999999999996
7947 27.495999999999999 51.25
7948 26.564 31.936
7949 64.588999999999999 37.143000000000001
7950 33.140999999999998 69.870999999999995
7951 61.344999999999999 88.834999999999994
7952 21.748999999999999 25.379000000000001
7953 66.775000000000006 26.460000000000001
7954 77.126999999999995 88.808000000000007
7955 69.656999999999996 86.936000000000007
7956 19.859000000000002 62.651000000000003
7957 17.789000000000001 36.006
7958 50.478999999999999 13.993
7959 16.062000000000001 58.789999999999999
7960 72.091999999999999 70.704999999999998
7961 47.021999999999998 22.571000000000002
7962 40.957999999999998 23.917999999999999
7963 71.123000000000005 76.683000000000007
7964 24.515999999999998 72.040000000000006
7965 36.024999999999999 26.251999999999999
7966 66.980000000000004 14.602
7967 35.398000000000003 25.643000000000001
7968 36.929000000000002 38.560000000000002
7969 34.985999999999997 24.696999999999999
7970 25.48 24.129000000000001
7971 60.298999999999999 69.210999999999999
7972 68.933000000000007 75.009
7973 60.289999999999999 34.287999999999997
7974 59.273000000000003 86.956999999999994
7975 15.484999999999999 60.667000000000002
7976 4.0369999999999999 53.524999999999999
7977 77.379999999999995 24.782
7978 63.569000000000003 24.715
7979 17.588999999999999 75.468000000000004
7980 68.575999999999993 37.485999999999997
7981 57.412999999999997 38.511000000000003
7982 32.999000000000002 65.073999999999998
7983 23.655000000000001 26.812999999999999
7984 64.902000000000001 74.671999999999997
7985 60.292999999999999 69.372
7986 26.372 27.079999999999998
7987 20.285 61.252000000000002
7988 35.253999999999998 37.082000000000001
7989 36.070999999999998 34.204000000000001
7990 55.652999999999999 35.414999999999999
7991 61.329000000000001 27.989000000000001
7992 15.755000000000001 72.674000000000007
7993 27.164999999999999 14.644
7994 29.803000000000001 25.558
7995 27.300000000000001 53.942999999999998
7996 25.710999999999999 54.499000000000002
7997 50.792000000000002 22.082999999999998
7998 63.024000000000001 83.620000000000005
7999 80.364999999999995 66.530000000000001
8000 65.778000000000006 18.341999999999999
8001 38.222999999999999 5.891
8002 34.893999999999998 59.549999999999997
8003 26.119 24.518999999999998
8004 15.387 68.611000000000004
8005 52.411000000000001 74.272000000000006
8006 20.794 68.968999999999994
8007 65.852000000000004 23.071999999999999
8008 73.677000000000007 65.903999999999996
8009 20.274999999999999 58.267000000000003
8010 67.679000000000002 30.062000000000001
8011 62.886000000000003 66.656000000000006
8012 30.09 37.932000000000002
8013 25.544 66.031000000000006
8014 66.007999999999996 19.116
8015 85.233999999999995 96.200000000000003
8016 62.853000000000002 23.989000000000001
8017 31.036999999999999 40.470999999999997
8018 28.452000000000002 67.218000000000004
8019 37.072000000000003 11.858000000000001
8020 60.981000000000002 32.122
8021 15.143000000000001 51.347000000000001
8022 35.045000000000002 36.052
8023 26.079000000000001 62.213000000000001
8024 63.268000000000001 26.478000000000002
8025 66.445999999999998 43.168999999999997
8026 73.650999999999996 81.611999999999995
8027 61.780999999999999 75.028000000000006
8028 60.761000000000003 19.640000000000001
8029 27.693000000000001 60.247999999999998
8030 25.152000000000001 76.834000000000003
8031 24.620000000000001 74.114000000000004
8032 24.722999999999999 30.562999999999999
8033 22.800999999999998 18.844999999999999
8034 84.329999999999998 23.646999999999998
8035 75.959999999999994 81.876000000000005
8036 55.850000000000001 76.655000000000001
8037 25.922999999999998 75.613
8038 69.385999999999996 31.131
8039 23.896999999999998 67.066000000000003
8040 16.437000000000001 33.448
8041 67.835999999999999 29.489000000000001
8042 31.992000000000001 24.530999999999999
8043 66.230999999999995 86.876000000000005
8044 24.541 40.595999999999997
8045 21.696000000000002 64.427000000000007
8046 34.417999999999999 34.567
8047 15.401 53.417000000000002
8048 32.033000000000001 68.093000000000004
8049 61.914000000000001 26.227
8050 47.920999999999999 23.687999999999999
8051 61.058 77.372
8052 31.375 19.805
8053 32.613 40.93
8054 69.622 17.853999999999999
8055 60.945 31.481000000000002
8056 18.530999999999999 67.941999999999993
8057 16.954000000000001 64.887
8058 21.565000000000001 55.868000000000002
8059 20.748999999999999 72.159999999999997
8060 25.914000000000001 25.189
8061 62.753999999999998 11.554
8062 64.221000000000004 88.304000000000002
8063 46.725999999999999 76.727000000000004
8064 30.347000000000001 38.036999999999999
8065 67.259 81.006
8066 44.720999999999997 61.103000000000002
8067 18.449999999999999 65.754000000000005
8068 41.32 43.072000000000003
8069 32.915999999999997 38.649999999999999
8070 53.814999999999998 17.814
8071 66.739999999999995 79.281999999999996
8072 66.941999999999993 70.275000000000006
8073 16.727 62.186
8074 71.713999999999999 90.036000000000001
8075 66.186000000000007 18.416
8076 65.188999999999993 27.414999999999999
8077 62.962000000000003 73.096999999999994
8078 24.841000000000001 78.813000000000002
8079 29.911999999999999 68.486999999999995
8080 76.305999999999997 73.971999999999994
8081 78.849000000000004 66.873999999999995
8082 16.681999999999999 68.799999999999997
8083 56.712000000000003 68.935000000000002
8084 45.713000000000001 16.768000000000001
8085 62.484000000000002 24.036000000000001
8086 28.363 57.220999999999997
8087 29.48 11.238
8088 66.144000000000005 16.594000000000001
8089 73.962000000000003 82.775000000000006
8090 74.649000000000001 84.123999999999995
8091 70.494 27.295000000000002
8092 30.898 67.748999999999995
8093 25.773 79.557000000000002
8094 57.978999999999999 33.774000000000001
8095 74.947000000000003 82.369
8096 62.097999999999999 28.649999999999999
8097 73.257999999999996 71.028999999999996
8098 30.510999999999999 55.881
8099 27.184999999999999 60.409999999999997
8100 27.305 21.215
8101 75.843000000000004 75.656000000000006
8102 36.116999999999997 11.513
8103 61.767000000000003 18.263000000000002
8104 66.275000000000006 92.207999999999998
8105 25.797999999999998 35.182000000000002
8106 61.771999999999998 25.966999999999999
8107 12.372 14.127000000000001
8108 20.187000000000001 72.900000000000006
8109 38.956000000000003 20.585999999999999
8110 52.594999999999999 79.539000000000001
8111 24.518999999999998 59.854999999999997
8112 78.337000000000003 71.915000000000006
8113 26.370999999999999 17.420000000000002
8114 10.222 73.903999999999996
8115 40.463999999999999 39.444000000000003
8116 86.444999999999993 32.128
8117 18.488 59.341999999999999
8118 16.995999999999999 55.381999999999998
8119 82.206999999999994 75.861000000000004
8120 63.646999999999998 74.888999999999996
8121 20.797999999999998 51.518999999999998
8122 68.858000000000004 83.822999999999993
8123 25.859999999999999 73.706999999999994
8124 65.212999999999994 88.043999999999997
8125 48.231999999999999 8.8420000000000005
8126 34.107999999999997 60.482999999999997
8127 70.256 83.209000000000003
8128 30.015000000000001 62.411000000000001
8129 69.218000000000004 84.358999999999995
8130 30.641999999999999 68.718000000000004
8131 58.884999999999998 20.460000000000001
8132 40.575000000000003 21.227
8133 67.947000000000003 80.614999999999995
8134 61.799999999999997 78.153000000000006
8135 35.296999999999997 19.687000000000001
8136 59.003999999999998 16.600000000000001
8137 26.077000000000002 40.795999999999999
8138 74.911000000000001 40.863
8139 41.598999999999997 56.103999999999999
8140 25.802 30.061
8141 63.162999999999997 66.769000000000005
8142 21.77 29.209
8143 63.597999999999999 22.492000000000001
8144 72.188000000000002 84.700000000000003
8145 21.997 80.105999999999995
8146 62.036000000000001 34.700000000000003
8147 61.932000000000002 84.111999999999995
8148 53.600999999999999 11.672000000000001
8149 74.296000000000006 64.945999999999998
8150 26.411000000000001 63.087000000000003
8151 68.716999999999999 40.695999999999998
8152 32.276000000000003 23.593
8153 18.457999999999998 70.228999999999999
8154 69.168000000000006 16.306999999999999
8155 73.268000000000001 86.298000000000002
8156 30.629999999999999 27.164000000000001
8157 24.786000000000001 59.988
8158 68.132000000000005 84.590000000000003
8159 27.129000000000001 33.232999999999997
8160 63.256999999999998 23.707999999999998
8161 38.728000000000002 13.586
8162 63.430999999999997 13.054
8163 39.965000000000003 21.608000000000001
8164 16.190999999999999 64.370999999999995
8165 65.234999999999999 77.200999999999993
8166 24.739999999999998 28.106000000000002
8167 32.045000000000002 36.279000000000003
8168 48.277000000000001 17.295000000000002
8169 79.366 21.721
8170 51.706000000000003 83.378
8171 61.344000000000001 83.247
8172 25.045000000000002 59.677999999999997
8173 72.799999999999997 87.950000000000003
8174 26.658000000000001 21.120000000000001
8175 83.069999999999993 78.724000000000004
8176 63.057000000000002 29.942
8177 17.219999999999999 77.972999999999999
8178 48.801000000000002 42.527000000000001
8179 78.643000000000001 24.071999999999999
8180 20.504000000000001 71.941000000000003
8181 60.119 35.515000000000001
8182 14.561999999999999 70.948999999999998
8183 61.085000000000001 32.817999999999998
8184 35.179000000000002 27.239000000000001
8185 58.25 18.783999999999999
8186 69.353999999999999 36.185000000000002
8187 33.423000000000002 19.704999999999998
8188 73.516999999999996 26.940999999999999
8189 27.111000000000001 30.068999999999999
8190 63.502000000000002 85.343999999999994
8191 68.694000000000003 94.343000000000004
8192 20.231999999999999 58.738
8193 66.457999999999998 87.403000000000006
8194 16.355 62.100000000000001
8195 34.759999999999998 61.363999999999997
8196 63.497 76.453999999999994
8197 24.934999999999999 27.696000000000002
8198 72.718000000000004 23.210999999999999
8199 63.905000000000001 22.783000000000001
8200 23.876000000000001 69.170000000000002
8201 36.229999999999997 23.675000000000001
8202 81.221000000000004 72.709999999999994
8203 12.361000000000001 65.012
8204 81.808999999999997 93.998000000000005
8205 28.166 16.43
8206 16.405000000000001 22.059999999999999
8207 24.946999999999999 66.277000000000001
8208 63.395000000000003 38.064
8209 25.890000000000001 75.305999999999997
8210 20.109999999999999 69.426000000000002
8211 42.106999999999999 9.4700000000000006
8212 25.323 16.283999999999999
8213 79.731999999999999 66.906999999999996
8214 60.868000000000002 18.495000000000001
8215 71.647000000000006 63.121000000000002
8216 75.695999999999998 73.103999999999999
8217 79.710999999999999 77.397000000000006
8218 23.905000000000001 59.929000000000002
8219 53.496000000000002 73.099000000000004
8220 24.216000000000001 52.420000000000002
8221 55.238 77.939999999999998
8222 73.741 33.819000000000003
8223 64.373000000000005 72.977999999999994
8224 32.134 31.786999999999999
8225 24.154 64.384
8226 30.602 73.364000000000004
8227 8.718 71.046000000000006
8228 24.428999999999998 64.974999999999994
8229 33.265999999999998 15.616
8230 31.657 58.962000000000003
8231 35.851999999999997 31.238
8232 19.324000000000002 67.912999999999997
8233 30.207000000000001 22.134
8234 27.030000000000001 30.760000000000002
8235 41.031999999999996 40.359999999999999
8236 67.325000000000003 76.858999999999995
8237 32.033999999999999 30.763000000000002
8238 28.873999999999999 27.542000000000002
8239 29.521999999999998 21.553000000000001
8240 31.847999999999999 36.351999999999997
8241 64.206000000000003 85.141999999999996
8242 36.043999999999997 18.908000000000001
8243 22.925000000000001 22.861000000000001
8244 24.234999999999999 78.078999999999994
8245 9.3689999999999998 62.469999999999999
8246 31.093 23.518000000000001
8247 64.379000000000005 80.241
8248 22.771999999999998 57.994
8249 25.452000000000002 31.919
8250 18.844000000000001 32.082000000000001
8251 27.617000000000001 37.728999999999999
8252 70.641000000000005 69.673000000000002
8253 43.018000000000001 23.437000000000001
8254 32.027000000000001 21.779
8255 35.228999999999999 31.521999999999998
8256 57.276000000000003 89.334999999999994
8257 55.747999999999998 35.262
8258 89.647999999999996 89.769000000000005
8259 23.076000000000001 67.796999999999997
8260 67.876999999999995 83.450999999999993
8261 76.512 74.195999999999998
8262 30.933 21.617999999999999
8263 27.831 63.436999999999998
8264 21.484999999999999 71.299000000000007
8265 57.688000000000002 14.981
8266 64.739999999999995 88.430000000000007
8267 52.082000000000001 23.317
8268 28.859999999999999 22.677
8269 60.228999999999999 16.073
8270 59.917000000000002 59.470999999999997
8271 69.942999999999998 89.747
8272 31.009 16.733000000000001
8273 66.777000000000001 25.672000000000001
8274 25.548999999999999 79.798000000000002
8275 79.721000000000004 74.617000000000004
8276 66.402000000000001 80.123000000000005
8277 86.209000000000003 29.347000000000001
8278 27.239000000000001 28.513000000000002
8279 7.1210000000000004 61.006999999999998
8280 44.008000000000003 18.664999999999999
8281 34.901000000000003 33.155999999999999
8282 35.573 19.875
8283 60.823 80.890000000000001
8284 63.503 30.292000000000002
8285 10.494999999999999 73.048000000000002
8286 23.800000000000001 86.105000000000004
8287 55.362000000000002 31.010999999999999
8288 64.977000000000004 26.155999999999999
8289 41.093000000000004 22.045999999999999
8290 74.611000000000004 23.73
8291 19.815000000000001 69.948999999999998
8292 73.099000000000004 74.617000000000004
8293 17.963999999999999 66.741
8294 28.565000000000001 39.783999999999999
8295 59.823 68.561000000000007
8296 34.158000000000001 35.262999999999998
8297 62.829000000000001 86.009
8298 54.536999999999999 88.317999999999998
8299 14.728999999999999 60.237000000000002
8300 19.401 72.338999999999999
8301 30.997 58.311999999999998
8302 82.109999999999999 17.780999999999999
8303 60.884999999999998 90.251999999999995
8304 13.282 71.519999999999996
8305 33.844000000000001 70.459999999999994
8306 8.2210000000000001 34.880000000000003
8307 23.379000000000001 59.417000000000002
8308 19.024999999999999 26.402000000000001
8309 79.096000000000004 83.831999999999994
8310 10.363 81.897000000000006
8311 37.505000000000003 33.866
8312 64.920000000000002 77.554000000000002
8313 17.545999999999999 70.668000000000006
8314 18.997 69.421999999999997
8315 76.183000000000007 66.138000000000005
8316 55.643000000000001 23.605
8317 18.704000000000001 70.998999999999995
8318 18.116 77.631
8319 55.475999999999999 16.914000000000001
8320 34.594000000000001 57.090000000000003
8321 44.064999999999998 30.177
8322 22.277000000000001 23.626000000000001
8323 14.653 69.721000000000004
8324 27.341000000000001 20.280000000000001
8325 22.245999999999999 28.585000000000001
8326 12.061 64.671999999999997
8327 63.317 18.975000000000001
8328 30.257000000000001 27.725999999999999
8329 21.350999999999999 60.116999999999997
8330 34.198999999999998 72.221000000000004
8331 54.767000000000003 26.231999999999999
8332 69.186999999999998 81.828000000000003
8333 14.324 67.081000000000003
8334 78.057000000000002 80.938000000000002
8335 33.981999999999999 57.210999999999999
8336 15.805 83.328000000000003
8337 28.556000000000001 23.696000000000002
8338 25.074999999999999 75.912999999999997
8339 56.156999999999996 83.661000000000001
8340 52.213000000000001 82.370999999999995
8341 39.786000000000001 63.420000000000002
8342 53.491999999999997 27.271999999999998
8343 28.907 62.094000000000001
8344 83.125 27.192
8345 27.738 38.090000000000003
8346 58.908000000000001 69.650999999999996
8347 6.766 67.016999999999996
8348 11.000999999999999 57.441000000000003
8349 26.555 52.052999999999997
8350 68.477000000000004 27.882999999999999
8351 84.140000000000001 28.817
8352 34.917000000000002 14.622
8353 65.831000000000003 88.230999999999995
8354 66.328999999999994 25.209
8355 67.325999999999993 13.955
8356 34.381999999999998 34.101999999999997
8357 65.863 77.609999999999999
8358 53.161999999999999 15.25
8359 65.418000000000006 83.522000000000006
8360 68.561000000000007 77.709000000000003
8361 68.820999999999998 80.578999999999994
8362 29.129000000000001 65.912000000000006
8363 77.183000000000007 21.789000000000001
8364 24.645 29.198
8365 79.406000000000006 18.812000000000001
8366 64.665999999999997 35.994
8367 49.593000000000004 68.126000000000005
8368 60.451000000000001 33.424999999999997
8369 18.465 19.913
8370 63.268999999999998 79.219999999999999
8371 38.238999999999997 34.902999999999999
8372 25.399999999999999 58.668999999999997
8373 26.334 18.024000000000001
8374 28.809999999999999 64.813000000000002
8375 62.767000000000003 78.221999999999994
8376 10.989000000000001 59.875
8377 37.229999999999997 69.873000000000005
8378 33.460000000000001 23.943999999999999
8379 78.718999999999994 83.144000000000005
8380 37.805999999999997 29.405000000000001
8381 27.314 21.646999999999998
8382 68.394000000000005 85.858999999999995
8383 13.800000000000001 72.536000000000001
8384 58.317 83.239999999999995
8385 67.197000000000003 20.829000000000001
8386 19.646000000000001 42.414000000000001
8387 74.548000000000002 82.823999999999998
8388 27.443999999999999 33.914999999999999
8389 68.969999999999999 61.892000000000003
8390 68.525000000000006 84.652000000000001
8391 50.890999999999998 24.396000000000001
8392 31.818999999999999 24.530000000000001
8393 52.103999999999999 30.774000000000001
8394 35.600000000000001 32.332000000000001
8395 58.305999999999997 69.352000000000004
8396 32.640000000000001 62.158999999999999
8397 17.061 33.896000000000001
8398 23.710999999999999 62.792000000000002
8399 68.341999999999999 70.751999999999995
8400 54.003999999999998 19.678000000000001
8401 62.075000000000003 68.799999999999997
8402 17.437999999999999 57.454999999999998
8403 35.738 25.690000000000001
8404 68.257999999999996 89.930999999999997
8405 51.884 87.796000000000006
8406 26.463000000000001 67.756
8407 62.256 79.988
8408 31.146999999999998 43.442
8409 63.473999999999997 74.111000000000004
8410 67.281000000000006 35.738
8411 28.684999999999999 52.494
8412 64.549000000000007 63.436999999999998
8413 26.626999999999999 37.289000000000001
8414 61.343000000000004 79.927000000000007
8415 65.724999999999994 17.239999999999998
8416 23.376000000000001 69.587000000000003
8417 61.369999999999997 21.629999999999999
8418 41.662999999999997 11.766999999999999
8419 21.355 26.061
8420 23.527999999999999 71.108999999999995
8421 63.743000000000002 77.094999999999999
8422 29.010000000000002 26.628
8423 61.555 72.730000000000004
8424 60.442 80.906999999999996
8425 30.027999999999999 33.381
8426 66.570999999999998 16.395
8427 29.591000000000001 29.422000000000001
8428 28.68 66.731999999999999
8429 29.254000000000001 64.722999999999999
8430 28.59 31.943000000000001
8431 28.294 82.028000000000006
8432 36.389000000000003 66.838999999999999
8433 72.712000000000003 87.332999999999998
8434 29.126000000000001 59.613
8435 51.305999999999997 17.227
8436 57.310000000000002 58.673000000000002
8437 79.594999999999999 82.742999999999995
8438 66.719999999999999 72.899000000000001
8439 31.989000000000001 12.324999999999999
8440 59.113999999999997 31.809000000000001
8441 64.111999999999995 20.192
8442 18.050999999999998 64.311000000000007
8443 22.375 57.354999999999997
8444 78.323999999999998 74.852999999999994
8445 48.064 22.893000000000001
8446 28.337 64.021000000000001
8447 31.524999999999999 17.359000000000002
8448 64.094999999999999 66.278000000000006
8449 24.324999999999999 27.879000000000001
8450 79.936000000000007 73.525000000000006
8451 71.125 28.701000000000001
8452 39.670000000000002 28.786999999999999
8453 67.879000000000005 23.305
8454 56.942999999999998 28.547999999999998
8455 18.754000000000001 53.340000000000003
8456 25.059999999999999 36.106999999999999
8457 77.363 80.171000000000006
8458 56.499000000000002 36.060000000000002
8459 50.896999999999998 43.893999999999998
8460 64.459000000000003 80.090999999999994
8461 15.419 34.57
8462 66.483000000000004 90.346999999999994
8463 17.344000000000001 49.436999999999998
8464 61.756999999999998 28.911999999999999
8465 54.862000000000002 7.8819999999999997
8466 38.499000000000002 21.798999999999999
8467 73.159999999999997 71.302999999999997
8468 10.163 72.338999999999999
8469 60.087000000000003 89.715999999999994
8470 46.920999999999999 32.362000000000002
8471 57.683 20.013000000000002
8472 79.926000000000002 77.037000000000006
8473 60.776000000000003 34.572000000000003
8474 70.622 25.760000000000002
8475 75.620999999999995 61.232999999999997
8476 84.950999999999993 67.048000000000002
8477 33.642000000000003 27.004999999999999
8478 63.512999999999998 44.706000000000003
8479 32.354999999999997 27.867999999999999
8480 58.774999999999999 18.786000000000001
8481 30.914000000000001 73.492000000000004
8482 50.606999999999999 34.576999999999998
8483 65.076999999999998 84.316999999999993
8484 64.256 21.783999999999999
8485 71.623999999999995 71.372
8486 63.177 80.286000000000001
8487 32.426000000000002 61.155000000000001
8488 34.176000000000002 30.841999999999999
8489 88.406000000000006 70.427999999999997
8490 70.070999999999998 80.938000000000002
8491 26.690999999999999 60.783999999999999
8492 38.682000000000002 13.612
8493 27.108000000000001 64.433000000000007
8494 13.972 57.030999999999999
8495 37.447000000000003 18.907
8496 22.096 83.116
8497 7.1130000000000004 43.328000000000003
8498 31.762 29.774999999999999
8499 60.399000000000001 73.301000000000002
8500 28.574000000000002 30.042000000000002
8501 19.123000000000001 69.013999999999996
8502 68.352000000000004 83.539000000000001
8503 31.844999999999999 19.452999999999999
8504 27.27 45.640000000000001
8505 23.718 68.992999999999995
8506 46.569000000000003 80.257000000000005
8507 30.66 28.745000000000001
8508 31.904 33.034999999999997
8509 78.069000000000003 86.129000000000005
8510 24.905999999999999 26.852
8511 23.286000000000001 24.495999999999999
8512 67.021000000000001 72.316000000000003
8513 37.979999999999997 38.088000000000001
8514 40.533999999999999 39.218000000000004
8515 62.302999999999997 17.259
8516 61.201999999999998 88.283000000000001
8517 33.396999999999998 21.062000000000001
8518 68.670000000000002 33.415999999999997
8519 33.298999999999999 28.364999999999998
8520 27.422000000000001 19.905000000000001
8521 58.454000000000001 19.645
8522 69.650999999999996 65.403000000000006
8523 30.707000000000001 27.285
8524 22.780999999999999 61.637
8525 23.512 27.216000000000001
8526 26.5 28.474
8527 35.390999999999998 41.579999999999998
8528 27.844000000000001 75.744
8529 18.661000000000001 26.533000000000001
8530 79.251000000000005 68.441999999999993
8531 45.456000000000003 21.379999999999999
8532 15.409000000000001 70.132999999999996
8533 20.917999999999999 67.614000000000004
8534 69.239999999999995 22.105
8535 16.716000000000001 71.094999999999999
8536 33.423999999999999 32.917000000000002
8537 34.316000000000003 33.533999999999999
8538 41.624000000000002 32.006999999999998
8539 67.730000000000004 69.747
8540 31.736999999999998 25.728999999999999
8541 33.661000000000001 31.251000000000001
8542 70.915000000000006 95.477000000000004
8543 36.703000000000003 37.575000000000003
8544 24.225999999999999 72.022000000000006
8545 70.221999999999994 81.971999999999994
8546 61.832999999999998 65.900000000000006
8547 66.721999999999994 84.536000000000001
8548 30.302 24.324999999999999
8549 67.159999999999997 88.230000000000004
8550 65.484999999999999 24.797999999999998
8551 7.5679999999999996 69.771000000000001
8552 62.049999999999997 34.146000000000001
8553 58.908000000000001 37.875
8554 17.934000000000001 58.43
8555 25.777999999999999 24.829000000000001
8556 51.218000000000004 85.534999999999997
8557 61.911000000000001 30.027999999999999
8558 61.963999999999999 26.635999999999999
8559 12.391 58.890000000000001
8560 12.253 68.483000000000004
8561 67.254000000000005 38.359999999999999
8562 25.654 23.443999999999999
8563 73.599000000000004 32.310000000000002
8564 77.966999999999999 12.855
8565 15.605 62.225000000000001
8566 67.010999999999996 76.960999999999999
8567 77.497 30.579999999999998
8568 71.817999999999998 90.448999999999998
8569 60.612000000000002 24.577000000000002
8570 77.061000000000007 57.960000000000001
8571 17.129000000000001 35.597000000000001
8572 79.793000000000006 82.378
8573 57.826999999999998 26.832999999999998
8574 82.638000000000005 24.010999999999999
8575 60.770000000000003 78.828000000000003
8576 7.2220000000000004 66.260999999999996
8577 31.149999999999999 88.096999999999994
8578 36.412999999999997 15.531000000000001
8579 60.023000000000003 78.468999999999994
8580 34.116999999999997 25.207999999999998
8581 25.766999999999999 29.327999999999999
8582 69.242999999999995 13.757
8583 36.075000000000003 66.552000000000007
8584 75.876999999999995 79.350999999999999
8585 64.869 62.738999999999997
8586 28.265999999999998 72.563000000000002
8587 22.777000000000001 61.305
8588 37.860999999999997 25.731999999999999
8589 34.093000000000004 15.647
8590 28.407 71.064999999999998
8591 32.718000000000004 12.804
8592 33.820999999999998 22.233000000000001
8593 57.819000000000003 19.184000000000001
8594 69.784000000000006 76.271000000000001
8595 31.393000000000001 26.521000000000001
8596 61.228000000000002 81.314999999999998
8597 15.417 68.799999999999997
8598 40.061 38.024999999999999
8599 24.341999999999999 9.3580000000000005
8600 6.9829999999999997 65.817999999999998
8601 28.431999999999999 66.227999999999994
8602 35.459000000000003 33.866
8603 14.375999999999999 65.337000000000003
8604 34.213000000000001 25.216000000000001
8605 26.899999999999999 26.745000000000001
8606 45.173000000000002 74.652000000000001
8607 25.995000000000001 25.899000000000001
8608 51.566000000000003 17.716000000000001
8609 76.691000000000003 24.425999999999998
8610 57.795999999999999 29.132999999999999
8611 34.536000000000001 31.548999999999999
8612 61.335999999999999 28.818999999999999
8613 9.8870000000000005 79.616
8614 62.468000000000004 83.007999999999996
8615 72.600999999999999 83.719999999999999
8616 67.495000000000005 17.946000000000002
8617 62.417999999999999 90.814999999999998
8618 16.231999999999999 72.947000000000003
8619 58.619 29.698
8620 25.690999999999999 73.751000000000005
8621 44.381 18.151
8622 70.933999999999997 44.834000000000003
8623 69.956999999999994 71.566999999999993
8624 67.870999999999995 21.838000000000001
8625 56.003999999999998 72.876000000000005
8626 18.388000000000002 75.495000000000005
8627 34.667999999999999 33.067999999999998
8628 23.879000000000001 71.141000000000005
8629 64.412999999999997 19.303999999999998
8630 18.922000000000001 64.594999999999999
8631 32.18 33.506
8632 36.366 23.123000000000001
8633 55.558 81.716999999999999
8634 27.356000000000002 76.022000000000006
8635 74.911000000000001 30.911999999999999
8636 79.117000000000004 38.656999999999996
8637 49.200000000000003 88.051000000000002
8638 70.882999999999996 31.547000000000001
8639 22.917000000000002 67.081000000000003
8640 76.953000000000003 90.183000000000007
8641 70.837999999999994 23.748000000000001
8642 27.899999999999999 56.478000000000002
8643 19.550999999999998 69.224999999999994
8644 62.792000000000002 78.855000000000004
8645 11.741 74.034000000000006
8646 58.573999999999998 21.274999999999999
8647 30.829999999999998 20.725999999999999
8648 71.991 26.152999999999999
8649 76.882999999999996 29.004999999999999
8650 77.734999999999999 67.203000000000003
8651 18.175000000000001 22.440999999999999
8652 23.972000000000001 68.734999999999999
8653 16.367999999999999 64.969999999999999
8654 32.695 37.441000000000003
8655 26.728000000000002 62.600000000000001
8656 65.213999999999999 25.710999999999999
8657 73.239000000000004 33.454999999999998
8658 78.125 88.387
8659 19.483000000000001 63.621000000000002
8660 21.552 33.436999999999998
8661 69.623999999999995 13.728999999999999
8662 23.009 48.988
8663 59.390999999999998 75.109999999999999
8664 55.875 19.34
8665 26.454000000000001 29.452999999999999
8666 78.549999999999997 66.760000000000005
8667 80.305000000000007 18.378
8668 47.404000000000003 77.816999999999993
8669 65.481999999999999 24.324000000000002
8670 65.811000000000007 84.221000000000004
8671 24.212 73.653999999999996
8672 63.118000000000002 30.152999999999999
8673 69.426000000000002 76.599999999999994
8674 26.238 23.542999999999999
8675 64.304000000000002 24
8676 28.943000000000001 72.254999999999995
8677 60.286999999999999 74.209999999999994
8678 63.957999999999998 80.626000000000005
8679 58.798999999999999 79.838999999999999
8680 67.438000000000002 30.638999999999999
8681 44.619 26.193000000000001
8682 63.779000000000003 20.058
8683 15.925000000000001 58.545000000000002
8684 69.602999999999994 71.372
8685 67.373000000000005 24.335999999999999
8686 36.381999999999998 30.890999999999998
8687 74.325999999999993 15.481
8688 28.588000000000001 21.140000000000001
8689 69.748999999999995 36.731000000000002
8690 30.875 33.380000000000003
8691 71.799999999999997 74.305000000000007
8692 56.314999999999998 73.829999999999998
8693 21.850999999999999 33.840000000000003
8694 21.126000000000001 57.189999999999998
8695 57.616999999999997 25.882000000000001
8696 30.925000000000001 29.367999999999999
8697 52.790999999999997 20.625
8698 15.031000000000001 73.738
8699 70.584999999999994 26.626000000000001
8700 16.922000000000001 64.959000000000003
8701 61.670999999999999 24.977
8702 29.026 20.858000000000001
8703 13.186 61.436
8704 27.710000000000001 40.195999999999998
8705 51.902000000000001 21.103000000000002
8706 39.493000000000002 26.895
8707 67.060000000000002 71.194999999999993
8708 64.206999999999994 80.480000000000004
8709 68.841999999999999 78.070999999999998
8710 39.222999999999999 30.937999999999999
8711 28.609999999999999 60.856000000000002
8712 77.024000000000001 41.521000000000001
8713 25.34 63.329999999999998
8714 72.942999999999998 72.647999999999996
8715 72.120999999999995 22.904
8716 28.824999999999999 28.684999999999999
8717 71.995999999999995 27.940000000000001
8718 15.803000000000001 68.390000000000001
8719 75.733999999999995 75.781999999999996
8720 33.366 33.191000000000003
8721 57.875 99.801000000000002
8722 24.870999999999999 72.147000000000006
8723 67.372 81.055999999999997
8724 32.872999999999998 17.975000000000001
8725 61.170999999999999 67.147000000000006
8726 60.566000000000003 21.917999999999999
8727 36.029000000000003 55.158000000000001
8728 26.417000000000002 83.930000000000007
8729 59.871000000000002 64.275000000000006
8730 24.754000000000001 17.013000000000002
8731 60.689999999999998 23.616
8732 27.635999999999999 23.748999999999999
8733 74.302999999999997 86.271000000000001
8734 82.450999999999993 66.876999999999995
8735 21.815999999999999 74.715000000000003
8736 13.208 27.245000000000001
8737 28.177 32.963000000000001
8738 15.791 70.415000000000006
8739 14.146000000000001 62.792999999999999
8740 67.436000000000007 40.256999999999998
8741 19.265000000000001 52.534999999999997
8742 18.593 62.575000000000003
8743 34.545999999999999 27.373000000000001
8744 32.942 25.271999999999998
8745 63.395000000000003 19.911999999999999
8746 70.003 70.341999999999999
8747 53.372999999999998 76.215000000000003
8748 23.814 33.994
8749 32.682000000000002 26.803000000000001
8750 13.749000000000001 58.488999999999997
8751 20.658000000000001 57.232999999999997
8752 66.959999999999994 87.150999999999996
8753 32.134 67.084000000000003
8754 62.981999999999999 82.626000000000005
8755 61.067 22.274000000000001
8756 28.716000000000001 28.606000000000002
8757 54.616999999999997 27.161999999999999
8758 7.782 72.152000000000001
8759 41.896000000000001 20.606000000000002
8760 61.685000000000002 29.780999999999999
8761 23.355 27.744
8762 38.335000000000001 29.521000000000001
8763 24.512 8.1820000000000004
8764 28.626999999999999 69.536000000000001
8765 68.334000000000003 23.986000000000001
8766 44.749000000000002 26.66
8767 70.236999999999995 76.741
8768 66.167000000000002 69.891999999999996
8769 67.593000000000004 69.287000000000006
8770 19.047000000000001 62.692
8771 33.844999999999999 73.971999999999994
8772 35.076000000000001 68.322999999999993
8773 60.432000000000002 84.664000000000001
8774 60.834000000000003 73.847999999999999
8775 71.861000000000004 60.411999999999999
8776 57.149000000000001 91.254000000000005
8777 30.542000000000002 70.144000000000005
8778 24.113 33.353000000000002
8779 58.811999999999998 23.298999999999999
8780 62.271999999999998 22.530000000000001
8781 59.430999999999997 36.088000000000001
8782 68.765000000000001 27.202000000000002
8783 30.594999999999999 28.154
8784 58.826999999999998 28.100000000000001
8785 69.123000000000005 87.563999999999993
8786 67.864000000000004 28.372
8787 27.927 21.309000000000001
8788 36.143000000000001 25.379999999999999
8789 68.305999999999997 82.653000000000006
8790 28.783999999999999 33.109999999999999
8791 62.316000000000003 76.287000000000006
8792 19.431000000000001 64.055999999999997
8793 61.314999999999998 71.978999999999999
8794 63.997 63.822000000000003
8795 21.530000000000001 25.667000000000002
8796 14.861000000000001 66.469999999999999
8797 67.302000000000007 78.709000000000003
8798 69.569999999999993 76.293000000000006
8799 63.853000000000002 80.831999999999994
8800 50.424999999999997 14.188000000000001
8801 62.320999999999998 38.087000000000003
8802 71.920000000000002 80.549999999999997
8803 64.793999999999997 42.014000000000003
8804 59.329000000000001 22.321999999999999
8805 62.460000000000001 33.378
8806 32.151000000000003 32.567999999999998
8807 76.686999999999998 17.555
8808 25.038 65.866
8809 64.501999999999995 6.306
8810 73.540999999999997 34.042999999999999
8811 32.326999999999998 60.771999999999998
8812 59.527999999999999 63.951000000000001
8813 66.326999999999998 74.126999999999995
8814 13.138 76.688999999999993
8815 14.646000000000001 66.819000000000003
8816 34.930999999999997 71.069000000000003
8817 72.846999999999994 64.575000000000003
8818 54.482999999999997 29.263000000000002
8819 79.049000000000007 87.245000000000005
8820 34.810000000000002 72.721000000000004
8821 53.499000000000002 91.623999999999995
8822 62.744 32.512
8823 17.861999999999998 56.177999999999997
8824 31.756 66.400000000000006
8825 52.909999999999997 24.821000000000002
8826 39.744999999999997 54.340000000000003
8827 80.477999999999994 80.783000000000001
8828 63.618000000000002 78.093000000000004
8829 28.875 72.956000000000003
8830 50.381999999999998 23.265000000000001
8831 17.222000000000001 68.709999999999994
8832 67.301000000000002 22.321000000000002
8833 5.4400000000000004 61.366
8834 14.33 71.293000000000006
8835 32.122 40.149000000000001
8836 20.800999999999998 75.822999999999993
8837 66 82.483999999999995
8838 9.7680000000000007 70.438000000000002
8839 71.144999999999996 83.712000000000003
8840 68.025000000000006 35.777000000000001
8841 33.947000000000003 63.972999999999999
8842 64.561999999999998 61.939999999999998
8843 16.225000000000001 62.805
8844 81.256 27.498999999999999
8845 56.883000000000003 27.93
8846 73.561999999999998 77.722999999999999
8847 52.210000000000001 19.919
8848 30.946999999999999 65.814999999999998
8849 79.850999999999999 73.810000000000002
8850 71.183999999999997 82.316000000000003
8851 55.606999999999999 81.632999999999996
8852 69.504000000000005 91.369
8853 36.450000000000003 68.150999999999996
8854 18.184999999999999 56.131
8855 70.991 24.844000000000001
8856 28.861999999999998 23.817
8857 70.745000000000005 16.789000000000001
8858 35.909999999999997 25.550000000000001
8859 14.169 50.918999999999997
8860 25.065999999999999 58.179000000000002
8861 16.427 74.747
8862 59.537999999999997 81.772000000000006
8863 66.641999999999996 83.131
8864 79.054000000000002 74.984999999999999
8865 78.186999999999998 90.120999999999995
8866 34.051000000000002 18.027999999999999
8867 64.727000000000004 33.326000000000001
8868 62.475999999999999 71.537000000000006
8869 58.804000000000002 21.117999999999999
8870 32.023000000000003 41.274000000000001
8871 67.629999999999995 8.9879999999999995
8872 15.516999999999999 62.945
8873 19.913 77.994
8874 27.504000000000001 26.881
8875 31.568999999999999 22.306000000000001
8876 23.795000000000002 55.348999999999997
8877 34.170000000000002 72.960999999999999
8878 64.087999999999994 79.057000000000002
8879 42.950000000000003 66.356999999999999
8880 13.452 61.433999999999997
8881 28.456 19.079000000000001
8882 26.861000000000001 20.385999999999999
8883 70.239999999999995 77.572999999999993
8884 10.273 71.218999999999994
8885 60.009 79.811999999999998
8886 57.143000000000001 37.075000000000003
8887 51.744 74.105000000000004
8888 55.240000000000002 38.427999999999997
8889 65.578000000000003 90.481999999999999
8890 53.231999999999999 74.292000000000002
8891 62.159999999999997 20.599
8892 50.006 48.771999999999998
8893 79.393000000000001 75.790999999999997
8894 65.506 25.940999999999999
8895 65.113 32.826999999999998
8896 50.826000000000001 74.394999999999996
8897 60.676000000000002 25.98
8898 59.395000000000003 85.304000000000002
8899 40.683 34.707000000000001
8900 38.067 17.135000000000002
8901 30.295000000000002 68.406000000000006
8902 60.902999999999999 31.100999999999999
8903 19.302 61.039000000000001
8904 67.930000000000007 69
8905 73.091999999999999 76.447999999999993
8906 68.200000000000003 78.772000000000006
8907 38.387999999999998 11.763999999999999
8908 57.088000000000001 67.025999999999996
8909 23.09 67.689999999999998
8910 38.970999999999997 57.613999999999997
8911 61.875 34.286999999999999
8912 68.432000000000002 9.2089999999999996
8913 23.038 9.8919999999999995
8914 44.003 17.994
8915 57.820999999999998 73.626000000000005
8916 23.128 69.268000000000001
8917 79.070999999999998 73.950999999999993
8918 63.210000000000001 85.706999999999994
8919 24.094000000000001 84.058000000000007
8920 26.818999999999999 30.748999999999999
8921 64.894999999999996 67.275999999999996
8922 35.713999999999999 27.113
8923 41.896000000000001 26.962
8924 41.009999999999998 33.965000000000003
8925 15.58 70.631
8926 44.901000000000003 20.890000000000001
8927 22.957000000000001 41.533999999999999
8928 77.656999999999996 91.367000000000004
8929 57.512999999999998 85.766000000000005
8930 27.006 24.948
8931 26.766999999999999 26.670999999999999
8932 84.391000000000005 37.921999999999997
8933 30.268000000000001 61.412999999999997
8934 68.400999999999996 22.550999999999998
8935 64.885999999999996 33.719999999999999
8936 36.262999999999998 14.317
8937 68.537999999999997 90.662000000000006
8938 72.853999999999999 19.227
8939 23.452000000000002 72.920000000000002
8940 34.994 25.018999999999998
8941 65.295000000000002 21.559000000000001
8942 27.085000000000001 75.016000000000005
8943 37.136000000000003 71.503
8944 69.394000000000005 28.047000000000001
8945 58.378999999999998 25.803999999999998
8946 37.177 27.902000000000001
8947 62.204000000000001 22.905999999999999
8948 69.783000000000001 85.935000000000002
8949 46.637999999999998 46.606000000000002
8950 66.971000000000004 72.457999999999998
8951 22.402000000000001 73.102000000000004
8952 64.649000000000001 76.533000000000001
8953 29.216000000000001 59.359999999999999
8954 17.898 75.174999999999997
8955 33.493000000000002 15.334
8956 60.231999999999999 25.501000000000001
8957 18.742999999999999 67.129999999999995
8958 28.751000000000001 56.563000000000002
8959 63.280000000000001 28.163
8960 20.478999999999999 72.602000000000004
8961 62.180999999999997 73.090999999999994
8962 24.611999999999998 63.359999999999999
8963 67.316000000000003 90
8964 59.164000000000001 82.123999999999995
8965 29.672999999999998 39.036999999999999
8966 17.591000000000001 74.753
8967 25.456 21.280000000000001
8968 19.968 55.597999999999999
8969 60.521999999999998 19.684999999999999
8970 31.463000000000001 27.495000000000001
8971 28.356999999999999 38.338999999999999
8972 71.727000000000004 21.411999999999999
8973 26.972000000000001 77.730999999999995
8974 62.563000000000002 29.795000000000002
8975 24.581 19.449000000000002
8976 14.372 72.781000000000006
8977 61.616 85.879999999999995
8978 37.195 77.867000000000004
8979 71.734999999999999 92.236999999999995
8980 26.402999999999999 74.831000000000003
8981 55.225999999999999 22.032
8982 27.265000000000001 67.912999999999997
8983 33.703000000000003 33.121000000000002
8984 65.290000000000006 73.992999999999995
8985 33.543999999999997 52.847000000000001
8986 73.903999999999996 8.5180000000000007
8987 22.876000000000001 66.460999999999999
8988 24.026 52.423999999999999
8989 36.302999999999997 28.425999999999998
8990 59.926000000000002 34.460999999999999
8991 69.134 72.775999999999996
8992 32.265999999999998 37.642000000000003
8993 47.765000000000001 15.978
8994 33.228999999999999 46.030000000000001
8995 32.676000000000002 27.431000000000001
8996 82.817999999999998 28.452000000000002
8997 62.238 85.465000000000003
8998 15.677 59.036000000000001
8999 59.673000000000002 30.984000000000002
9000 14.199 75.626000000000005
9001 72.397000000000006 80.974999999999994
9002 60.356999999999999 37.777999999999999
9003 34.877000000000002 65.334999999999994
9004 73.822000000000003 32.716999999999999
9005 64.016000000000005 69.466999999999999
9006 35.081000000000003 76.307000000000002
9007 16.038 60.476999999999997
9008 23.352 30.408000000000001
9009 58.720999999999997 24.065999999999999
9010 25.058 53.191000000000003
9011 37.182000000000002 30.998000000000001
9012 27.957999999999998 27.651
9013 34.780999999999999 74.099000000000004
9014 55.655999999999999 12.082000000000001
9015 75.944999999999993 81.376999999999995
9016 65.802000000000007 80.747
9017 21.260000000000002 62.542000000000002
9018 60.780999999999999 76.213999999999999
9019 52.93 33.097000000000001
9020 59.369 25.006
9021 63.512999999999998 36.348999999999997
9022 64.221000000000004 28.233000000000001
9023 42.978999999999999 15.715
9024 63.003999999999998 34.438000000000002
9025 36.037999999999997 24.466000000000001
9026 34.737000000000002 15.173
9027 34.595999999999997 25.861000000000001
9028 74.278000000000006 81.867000000000004
9029 60.783999999999999 34.332000000000001
9030 22.948 75.006
9031 21.638999999999999 58.636000000000003
9032 36.488 15.397
9033 70.501999999999995 83.781999999999996
9034 65.046000000000006 73.596999999999994
9035 27.609000000000002 65.677999999999997
9036 61.573 98.715999999999994
9037 61.665999999999997 26.869
9038 37.956000000000003 59.820999999999998
9039 26.757000000000001 27.361000000000001
9040 22.574999999999999 18.981999999999999
9041 17.423999999999999 61.872
9042 37.475999999999999 30.023
9043 85.417000000000002 89.084999999999994
9044 28.068000000000001 24.751999999999999
9045 70.007999999999996 29.134
9046 12.707000000000001 58.673000000000002
9047 57.753 66.472999999999999
9048 41.366999999999997 22.704999999999998
9049 25.376000000000001 42.122999999999998
9050 19.565000000000001 32.432000000000002
9051 60.052 78.009
9052 37.777999999999999 28.911999999999999
9053 23.899999999999999 33.765000000000001
9054 64.632000000000005 82.381
9055 69.694999999999993 30.091000000000001
9056 60.192 25.253
9057 56.218000000000004 22.541
9058 42.034999999999997 27.530999999999999
9059 30.239999999999998 32.923999999999999
9060 27.050999999999998 24.766999999999999
9061 30.414000000000001 40.460000000000001
9062 53.414000000000001 34.545000000000002
9063 74.768000000000001 28.215
9064 14.849 68.522000000000006
9065 28.52 71.048000000000002
9066 18.533999999999999 56.204999999999998
9067 72.626999999999995 81.066999999999993
9068 68.983000000000004 78.331000000000003
9069 28.254999999999999 31.600000000000001
9070 69.247 75.120000000000005
9071 63.164000000000001 28.210999999999999
9072 57.235999999999997 89.712999999999994
9073 44.225000000000001 17.09
9074 17.434999999999999 45.506999999999998
9075 70.887 18.332000000000001
9076 42.953000000000003 29.663
9077 26.361000000000001 60.247
9078 35.229999999999997 41.506999999999998
9079 81.753 99.819000000000003
9080 16.629999999999999 69.406000000000006
9081 73.563999999999993 31.012
9082 25.568000000000001 33.667000000000002
9083 32.079000000000001 25.484999999999999
9084 81.715000000000003 75.293999999999997
9085 71.504999999999995 22.481999999999999
9086 7.149 57.399999999999999
9087 11.265000000000001 69.614000000000004
9088 16.789999999999999 65.272999999999996
9089 30.84 68.420000000000002
9090 28.353999999999999 69.037999999999997
9091 65.972999999999999 75.433999999999997
9092 37.198999999999998 35.219999999999999
9093 22.623000000000001 16.803000000000001
9094 70.778000000000006 95.438999999999993
9095 64.866 14.015000000000001
9096 69.382999999999996 21.741
9097 77.280000000000001 73.123000000000005
9098 25.25 38.603000000000002
9099 67.772000000000006 89.858000000000004
9100 73.632999999999996 30.292000000000002
9101 11.75 77.242999999999995
9102 60.177999999999997 28.823
9103 62.604999999999997 73.965999999999994
9104 17.007999999999999 64.424000000000007
9105 67.882999999999996 78.483999999999995
9106 21.271999999999998 60.323
9107 33.008000000000003 71.769000000000005
9108 13.372999999999999 60.164000000000001
9109 15.5 71.780000000000001
9110 15.141999999999999 30.329000000000001
9111 20.504000000000001 57.021999999999998
9112 18.867999999999999 34.206000000000003
9113 26.091000000000001 26.887
9114 25.719999999999999 64.501000000000005
9115 70.007999999999996 24.564
9116 73.233000000000004 30.940999999999999
9117 63.271000000000001 28.143999999999998
9118 34.563000000000002 56.981000000000002
9119 18.518000000000001 64.471000000000004
9120 66.709000000000003 75.221000000000004
9121 75.706999999999994 75.575000000000003
9122 36.173999999999999 54.859999999999999
9123 75.242999999999995 74.400000000000006
9124 27.314 28.855
9125 11.59 51.764000000000003
9126 67.951999999999998 78.231999999999999
9127 68.149000000000001 58.603000000000002
9128 12.332000000000001 58.784999999999997
9129 71.614999999999995 79.998000000000005
9130 66.307000000000002 61.704999999999998
9131 53.493000000000002 33.747
9132 72.075000000000003 94.665000000000006
9133 30.643999999999998 30.948
9134 14.504 68.536000000000001
9135 23.995999999999999 16.143000000000001
9136 25.059000000000001 27.364999999999998
9137 74.125 10.896000000000001
9138 21.286000000000001 70.495999999999995
9139 66.843999999999994 87.384
9140 8.8819999999999997 65.105999999999995
9141 60.966000000000001 84.789000000000001
9142 38.046999999999997 33.851999999999997
9143 34.226999999999997 19.872
9144 71.981999999999999 21.149999999999999
9145 67.799999999999997 84.039000000000001
9146 62.472999999999999 99.409999999999997
9147 31.059000000000001 27.053000000000001
9148 21.026 71.5
9149 58.899999999999999 24.468
9150 74.319000000000003 78.843999999999994
9151 12.109999999999999 68.983999999999995
9152 52.201999999999998 16.053000000000001
9153 17.984999999999999 70.284000000000006
9154 36.232999999999997 31.763999999999999
9155 69.379000000000005 88.906000000000006
9156 60.755000000000003 29.800999999999998
9157 64.760999999999996 94.653000000000006
9158 65.277000000000001 76.387
9159 38.301000000000002 26.917999999999999
9160 24.995000000000001 72.926000000000002
9161 74.808000000000007 58.018000000000001
9162 24.899999999999999 59.116
9163 22.652999999999999 65.915999999999997
9164 63.411000000000001 27.166
9165 78.319000000000003 73.609999999999999
9166 22.584 29.52
9167 19.079000000000001 63.813000000000002
9168 36.177 14.984999999999999
9169 65.388999999999996 19.591000000000001
9170 16.018000000000001 67.519000000000005
9171 38.960999999999999 73.186000000000007
9172 36.747999999999998 72.703000000000003
9173 24.934000000000001 70.126000000000005
9174 73.792000000000002 93.518000000000001
9175 73.867999999999995 67.688999999999993
9176 61.213000000000001 87.018000000000001
9177 33.259 70.316999999999993
9178 41.832999999999998 18.957000000000001
9179 64.801000000000002 82.227000000000004
9180 25.914000000000001 78.528999999999996
9181 70.930000000000007 4.0049999999999999
9182 21.957000000000001 32.847000000000001
9183 73.102999999999994 30.416
9184 72.549999999999997 37.648000000000003
9185 20.887 60.959000000000003
9186 32.945999999999998 28.765999999999998
9187 28.375 51.058999999999997
9188 65.759 34.082000000000001
9189 72.241 61.627000000000002
9190 76.355999999999995 64.944999999999993
9191 26.213000000000001 28.556000000000001
9192 80.203999999999994 76.350999999999999
9193 11.253 71.271000000000001
9194 27.271999999999998 50.924999999999997
9195 79.436999999999998 25.300999999999998
9196 62.679000000000002 87.605999999999995
9197 80.269000000000005 90.668999999999997
9198 71.292000000000002 25.489000000000001
9199 36.094000000000001 15.287000000000001
9200 55.765000000000001 30.754999999999999
9201 64.344999999999999 26.523
9202 26.783999999999999 72.781999999999996
9203 61.905000000000001 72.010999999999996
9204 55.357999999999997 72.111000000000004
9205 69.911000000000001 77.823999999999998
9206 72.719999999999999 66.834000000000003
9207 78.674000000000007 25.957999999999998
9208 70.156999999999996 25.298999999999999
9209 70.290999999999997 36.561
9210 63.874000000000002 26.498000000000001
9211 17.684000000000001 35.863999999999997
9212 20.876999999999999 66.364999999999995
9213 36.726999999999997 18.417000000000002
9214 61.381 82.578999999999994
9215 18.573 72.290000000000006
9216 16.327000000000002 65.915000000000006
9217 17.048999999999999 74.363
9218 67.846999999999994 31.588999999999999
9219 22.280000000000001 69.783000000000001
9220 11.557 70.591999999999999
9221 49.106000000000002 25.204999999999998
9222 26.581 54.344000000000001
9223 55.676000000000002 78.429000000000002
9224 16.603000000000002 69.775999999999996
9225 59.606999999999999 16.989000000000001
9226 71.828000000000003 77.882999999999996
9227 13.467000000000001 60.146000000000001
9228 22.613 68.028999999999996
9229 58.923999999999999 84.340000000000003
9230 20.129999999999999 59.938000000000002
9231 39.405000000000001 44.872
9232 44.412999999999997 27.917000000000002
9233 31.753 74.932000000000002
9234 62.350999999999999 31.224
9235 28.562000000000001 22.07
9236 73.942999999999998 89.182000000000002
9237 53.985999999999997 75.311999999999998
9238 73.507000000000005 74.290000000000006
9239 69.953000000000003 35.155999999999999
9240 72.393000000000001 92.968999999999994
9241 19.896999999999998 64.069000000000003
9242 74.069000000000003 76.259
9243 79.061999999999998 88.634
9244 19.634 68.959999999999994
9245 30.385999999999999 24.896000000000001
9246 24.678000000000001 53.804000000000002
9247 74.784999999999997 26.158000000000001
9248 43.869 59.088999999999999
9249 37.100999999999999 36.018999999999998
9250 26.751999999999999 70.626000000000005
9251 18.285 11.497999999999999
9252 16.808 74.736999999999995
9253 72.507000000000005 69.670000000000002
9254 66.744 30.771999999999998
9255 69.438999999999993 66.933000000000007
9256 41.223999999999997 27.786000000000001
9257 71.064999999999998 85.656999999999996
9258 29.731000000000002 56.393000000000001
9259 34.762 25.981000000000002
9260 52.359000000000002 91.213999999999999
9261 68.968000000000004 81.855000000000004
9262 53.252000000000002 72.180000000000007
9263 30.91 32.723999999999997
9264 13.456 34.530999999999999
9265 61.25 34.642000000000003
9266 28.853999999999999 59.856000000000002
9267 32.493000000000002 24.314
9268 67.617999999999995 26.832000000000001
9269 23.923999999999999 23.780000000000001
9270 59.497999999999998 84.662000000000006
9271 69.501999999999995 26.657
9272 56.231000000000002 27.192
9273 24.687999999999999 67.578999999999994
9274 24.413 62.390999999999998
9275 56.573999999999998 20.209
9276 68.653000000000006 23.097000000000001
9277 34.43 23.190000000000001
9278 33.838000000000001 20.510000000000002
9279 68.192999999999998 30.055
9280 64.259 72.239999999999995
9281 68.304000000000002 81.087000000000003
9282 13.268000000000001 60.639000000000003
9283 72.647999999999996 20.077999999999999
9284 14.465999999999999 68.560000000000002
9285 17.32 26.411999999999999
9286 85.221000000000004 90.739000000000004
9287 73.944999999999993 72.775000000000006
9288 47.226999999999997 28.722999999999999
9289 76.069000000000003 23.148
9290 68.131 23.082000000000001
9291 14.795999999999999 59.689
9292 16.199999999999999 57.279000000000003
9293 24.408000000000001 65.120000000000005
9294 68.373000000000005 92.590000000000003
9295 59.360999999999997 23.683
9296 67.769999999999996 32.942999999999998
9297 32.337000000000003 35.436999999999998
9298 59.643999999999998 21.437000000000001
9299 59.081000000000003 87.462999999999994
9300 58.447000000000003 83.765000000000001
9301 68.403999999999996 16.829999999999998
9302 49.536000000000001 20.998000000000001
9303 21.699000000000002 69.716999999999999
9304 20.349 13.855
9305 25.221 35.097999999999999
9306 26.881 56.329999999999998
9307 53.439999999999998 77.938000000000002
9308 22.504999999999999 38.195999999999998
9309 72.272999999999996 29.931000000000001
9310 71.093999999999994 72.512
9311 69.188000000000002 78.013999999999996
9312 31.335999999999999 32.139000000000003
9313 49.273000000000003 21.062999999999999
9314 70.203000000000003 89.100999999999999
9315 33.753 32.097000000000001
9316 13.439 64.022999999999996
9317 36.921999999999997 25.864999999999998
9318 29.393000000000001 53.436999999999998
9319 69.736000000000004 32.283999999999999
9320 30.567 22.664999999999999
9321 72.058000000000007 65.268000000000001
9322 3.4590000000000001 69.292000000000002
9323 64.543999999999997 42.951000000000001
9324 63.718000000000004 9.5099999999999998
9325 62.168999999999997 70.403999999999996
9326 75.034000000000006 20.888999999999999
9327 70.721999999999994 29.367999999999999
9328 79.977000000000004 78.869
9329 65.563999999999993 35.914999999999999
9330 65.790999999999997 26.454000000000001
9331 30.547999999999998 12.359999999999999
9332 63.698 24.655000000000001
9333 59.201999999999998 16.706
9334 34.706000000000003 28.228999999999999
9335 62.847999999999999 33.801000000000002
9336 56.197000000000003 34.874000000000002
9337 79.027000000000001 60.509999999999998
9338 20.716000000000001 20.081
9339 58.537999999999997 67.087000000000003
9340 74.668000000000006 89.049000000000007
9341 50.932000000000002 22.677
9342 76.159000000000006 89.950999999999993
9343 35.543999999999997 27.556000000000001
9344 16.303000000000001 55.241
9345 64.215000000000003 85.195999999999998
9346 9.4779999999999998 77.234999999999999
9347 18.859000000000002 46.613999999999997
9348 59.198 34.509999999999998
9349 55.499000000000002 68.128
9350 70.466999999999999 19.579999999999998
9351 21.445 12.324
9352 16.709 37.832000000000001
9353 15.930999999999999 64.292000000000002
9354 25.815000000000001 18.571000000000002
9355 19.704999999999998 63.009999999999998
9356 41.805 14.477
9357 40.469000000000001 28.475999999999999
9358 23.82 63.255000000000003
9359 35.101999999999997 29.952000000000002
9360 10.941000000000001 61.625999999999998
9361 33.890000000000001 28.629000000000001
9362 63.128999999999998 75.935000000000002
9363 16.768000000000001 70.549999999999997
9364 45.204999999999998 57.375
9365 18.449999999999999 56.659999999999997
9366 66.855999999999995 32.536999999999999
9367 34.130000000000003 42.680999999999997
9368 34.223999999999997 63.956000000000003
9369 4.6470000000000002 62.427
9370 66.412999999999997 73.197999999999993
9371 31.004999999999999 11.475
9372 30.765000000000001 32.613999999999997
9373 52.231000000000002 77.335999999999999
9374 18.263999999999999 68.677999999999997
9375 65.156000000000006 19.151
9376 21.946000000000002 47.170000000000002
9377 30.539999999999999 52.106000000000002
9378 31.516999999999999 34.499000000000002
9379 59.765999999999998 88.344999999999999
9380 44.225000000000001 58.878
9381 36.320999999999998 33.497
9382 28.893999999999998 19.884
9383 23.962 71.144000000000005
9384 28.010999999999999 32.341999999999999
9385 64.932000000000002 31.346
9386 33.136000000000003 13.047000000000001
9387 60.021000000000001 82.849000000000004
9388 77.760000000000005 25.829999999999998
9389 37.273000000000003 15.461
9390 12.951000000000001 63.134999999999998
9391 32.817 22.013000000000002
9392 23.484000000000002 74.451999999999998
9393 41.968000000000004 36.902999999999999
9394 18.353999999999999 81.331999999999994
9395 17.673999999999999 59.911999999999999
9396 20.131 24.193999999999999
9397 63.368000000000002 84.361000000000004
9398 72.873999999999995 18.23
9399 32.475999999999999 20.765000000000001
9400 72.168999999999997 17.789000000000001
9401 25.282 24.725000000000001
9402 8.6709999999999994 15.872999999999999
9403 61.676000000000002 90.882999999999996
9404 36.189999999999998 32.646000000000001
9405 78.257999999999996 21.228000000000002
9406 10.257 68.611999999999995
9407 58.838999999999999 83.251000000000005
9408 59.417000000000002 24.161999999999999
9409 72.789000000000001 69.387
9410 35.802999999999997 32.515000000000001
9411 70.840000000000003 74.016999999999996
9412 66.778000000000006 85.367999999999995
9413 58.914000000000001 25.978999999999999
9414 35.890999999999998 80.453000000000003
9415 27.995000000000001 66.525000000000006
9416 69.430000000000007 69.406999999999996
9417 29.971 63.456000000000003
9418 28.690000000000001 64.689999999999998
9419 25.965 50.280999999999999
9420 28.995999999999999 18.914000000000001
9421 28.513999999999999 75.867000000000004
9422 42.174999999999997 29.132999999999999
9423 38.600000000000001 25.651
9424 77.350999999999999 17.719999999999999
9425 61.171999999999997 23.032
9426 73.043999999999997 14.797000000000001
9427 17.798999999999999 72.234999999999999
9428 26.245000000000001 76.058999999999997
9429 16.962 26.702999999999999
9430 60.475000000000001 21.513999999999999
9431 57.383000000000003 86.841999999999999
9432 49.055999999999997 31.901
9433 59.182000000000002 30.847999999999999
9434 14.276999999999999 65.375
9435 22.02 78.103999999999999
9436 62.088000000000001 5.0620000000000003
9437 71.402000000000001 80.606999999999999
9438 62.677 29.373999999999999
9439 76.381 82.799000000000007
9440 60.314999999999998 77.406000000000006
9441 39.555999999999997 18.594999999999999
9442 23.658999999999999 25.071000000000002
9443 13.444000000000001 31.574000000000002
9444 30.959 19.777999999999999
9445 75.457999999999998 87.545000000000002
9446 19.789999999999999 27.712
9447 73.222999999999999 22.048999999999999
9448 17.082000000000001 56.436999999999998
9449 39.345999999999997 35.140000000000001
9450 10.756 30.876999999999999
9451 71.051000000000002 35.252000000000002
9452 77.138999999999996 24.594000000000001
9453 38.610999999999997 31.957999999999998
9454 78.180999999999997 79.869
9455 58.703000000000003 88.813000000000002
9456 59.920999999999999 21.928999999999998
9457 75.341999999999999 38.359999999999999
9458 56.759 32.470999999999997
9459 72.953000000000003 75.111000000000004
9460 11.547000000000001 70.834000000000003
9461 22.16 32.917999999999999
9462 69.265000000000001 22.510999999999999
9463 82.528999999999996 80.923000000000002
9464 74.134 69.692999999999998
9465 21.789999999999999 36.613999999999997
9466 64.736000000000004 85.269999999999996
9467 8.3019999999999996 61.887
9468 65.885999999999996 75.796000000000006
9469 57.463999999999999 28.120999999999999
9470 61.82 26.02
9471 46.438000000000002 87.528999999999996
9472 29.402999999999999 26.341999999999999
9473 36.139000000000003 19.887
9474 32.103999999999999 25.469999999999999
9475 57.807000000000002 73.745999999999995
9476 36.457999999999998 20.23
9477 80.899000000000001 84.798000000000002
9478 68.921999999999997 27.367000000000001
9479 66.481999999999999 82.265000000000001
9480 33.695999999999998 26.548999999999999
9481 31.297000000000001 39.481000000000002
9482 68.575999999999993 17.992999999999999
9483 20.07 69.757000000000005
9484 67.991 22.361999999999998
9485 47.408000000000001 34.350000000000001
9486 40.942999999999998 22.782
9487 67.441999999999993 19.533000000000001
9488 19.018999999999998 20.93
9489 30.132999999999999 28.585999999999999
9490 13.871 43.472000000000001
9491 64.438999999999993 80.722999999999999
9492 26.042000000000002 72.911000000000001
9493 68.626999999999995 79.683000000000007
9494 39.249000000000002 35.600000000000001
9495 66.924000000000007 83.265000000000001
9496 57.317 41.789999999999999
9497 4.9320000000000004 68.567999999999998
9498 72.921000000000006 15.662000000000001
9499 69.683000000000007 77.448999999999998
9500 68.781000000000006 20.404
9501 72.590999999999994 27.434000000000001
9502 32.523000000000003 22.829999999999998
9503 72.894999999999996 82.103999999999999
9504 57.868000000000002 26.648
9505 11.717000000000001 68.102000000000004
9506 17.545000000000002 71.265000000000001
9507 33.901000000000003 28.294
9508 51.771999999999998 41.639000000000003
9509 68.965999999999994 83.313000000000002
9510 63.075000000000003 22.274999999999999
9511 39.512999999999998 25.838999999999999
9512 59.539999999999999 37.122999999999998
9513 69.069999999999993 40.676000000000002
9514 72.591999999999999 32.737000000000002
9515 77.811999999999998 74.105999999999995
9516 62.368000000000002 14.805999999999999
9517 25.573 24.512
9518 19.407 27.106000000000002
9519 27.216999999999999 58.106000000000002
9520 65.617999999999995 80.926000000000002
9521 71.143000000000001 82.308999999999997
9522 71.456000000000003 71.527000000000001
9523 35.063000000000002 25.015000000000001
9524 66.742000000000004 84.069999999999993
9525 32.323999999999998 34.201999999999998
9526 55.045000000000002 24.991
9527 35.786999999999999 11.255000000000001
9528 62.161999999999999 32.451000000000001
9529 13.566000000000001 70
9530 66.978999999999999 19.280000000000001
9531 70.698999999999998 26.971
9532 22.190000000000001 65.805999999999997
9533 69.384 27.925999999999998
9534 73.548000000000002 70.129000000000005
9535 75.528999999999996 82.605999999999995
9536 67.781999999999996 21.904
9537 33.264000000000003 84.137
9538 29.859999999999999 81.644000000000005
9539 63.698 95.290999999999997
9540 20.484999999999999 64.896000000000001
9541 34.548000000000002 69.030000000000001
9542 35.237000000000002 59.530000000000001
9543 38.468000000000004 25.355
9544 71.245000000000005 72.238
9545 31.658999999999999 21.446000000000002
9546 6.8369999999999997 67.656999999999996
9547 56.375 22.986000000000001
9548 63.302 81.347999999999999
9549 72.230000000000004 21.231999999999999
9550 60.462000000000003 83.003
9551 18.907 61.170999999999999
9552 26.683 18.805
9553 52.590000000000003 28.82
9554 80.707999999999998 67.102999999999994
9555 27.422000000000001 65.594999999999999
9556 33.219000000000001 63.188000000000002
9557 69.375 79.811999999999998
9558 15.013 16.565000000000001
9559 29.881 28.448
9560 79.034999999999997 91.888000000000005
9561 19.765999999999998 67.370999999999995
9562 77.156000000000006 88.456999999999994
9563 23.120999999999999 28.812999999999999
9564 63.329999999999998 87.078000000000003
9565 36.213000000000001 19.812000000000001
9566 15.009 77.073999999999998
9567 34.481999999999999 20.707000000000001
9568 68.388000000000005 11.948
9569 50.606000000000002 27.149999999999999
9570 67.727999999999994 36.094000000000001
9571 28.643999999999998 68.278999999999996
9572 74.281999999999996 83.063000000000002
9573 28.149999999999999 19.452999999999999
9574 80.881 69.707999999999998
9575 71.155000000000001 30.326000000000001
9576 30.097000000000001 32.831000000000003
9577 28.861000000000001 68.293999999999997
9578 59.976999999999997 31.202000000000002
9579 24.574999999999999 63.085000000000001
9580 45.295000000000002 24.878
9581 23.050999999999998 16.687999999999999
9582 51.052 33.945999999999998
9583 57.521999999999998 73.242999999999995
9584 72.960999999999999 18.728999999999999
9585 60.762 32.826000000000001
9586 77.016000000000005 79.597999999999999
9587 55.369999999999997 22.166
9588 72.385000000000005 21.123999999999999
9589 69.843000000000004 20.361000000000001
9590 45.061999999999998 15.468
9591 10.957000000000001 49.067999999999998
9592 14.364000000000001 18.856999999999999
9593 34.152000000000001 23.931999999999999
9594 23.376000000000001 32.155999999999999
9595 71.570999999999998 41.923000000000002
9596 73.543000000000006 15.582000000000001
9597 42.475000000000001 42.658999999999999
9598 64.159000000000006 80.150999999999996
9599 78.734999999999999 81.183000000000007
9600 25.966000000000001 28.056999999999999
9601 66.894999999999996 24.012
9602 69.572000000000003 18.649999999999999
9603 27.596 75.084999999999994
9604 13.571999999999999 68.088999999999999
9605 39.509 23.433
9606 30.341000000000001 69.516999999999996
9607 31.544 12.571999999999999
9608 78.268000000000001 89.185000000000002
9609 44.335999999999999 24.259
9610 70.492999999999995 72.525999999999996
9611 63.133000000000003 28.838999999999999
9612 25.934999999999999 16.353000000000002
9613 30.786000000000001 61.536999999999999
9614 27.484000000000002 34.076000000000001
9615 36.531999999999996 63.847000000000001
9616 24.021000000000001 21.963000000000001
9617 69.930000000000007 34.293999999999997
9618 14.128 63.642000000000003
9619 60.265000000000001 29.632000000000001
9620 66.463999999999999 73.177000000000007
9621 27.466000000000001 13.319000000000001
9622 19.231000000000002 55.926000000000002
9623 62.069000000000003 70.667000000000002
9624 78.459999999999994 27.917000000000002
9625 23.382000000000001 53.518999999999998
9626 56.359000000000002 81.143000000000001
9627 57.058999999999997 19.890000000000001
9628 55.481000000000002 18.309000000000001
9629 24.331 56.052999999999997
9630 38.131999999999998 65.900000000000006
9631 75.439999999999998 73.355000000000004
9632 60.902999999999999 76.561000000000007
9633 53.529000000000003 21.042000000000002
9634 28.824999999999999 22.629000000000001
9635 57.475999999999999 33.548000000000002
9636 68.956999999999994 34.659999999999997
9637 47.018000000000001 13.314
9638 36.343000000000004 20.318000000000001
9639 60.340000000000003 27.013999999999999
9640 28.347000000000001 26.934999999999999
9641 31.422999999999998 25.719000000000001
9642 28.155999999999999 43.497999999999998
9643 41.917999999999999 32.856000000000002
9644 23.213999999999999 74.983000000000004
9645 71.230999999999995 76.417000000000002
9646 58.746000000000002 23.844999999999999
9647 67.167000000000002 22.266999999999999
9648 31.298999999999999 80.055999999999997
9649 41.006999999999998 27.890999999999998
9650 79.549000000000007 70.900000000000006
9651 34.279000000000003 11.685
9652 30.524000000000001 56.709000000000003
9653 35.808999999999997 21.134
9654 30.061 59.131
9655 43.308 22.908999999999999
9656 32.375 37.667000000000002
9657 53.835999999999999 27.827000000000002
9658 70.120999999999995 71.832999999999998
9659 29.632000000000001 28.327000000000002
9660 24.248999999999999 62.917000000000002
9661 64.75 77.781000000000006
9662 21.48 63.390000000000001
9663 41.122999999999998 19.460000000000001
9664 30.341000000000001 68.915000000000006
9665 28.295999999999999 24.702999999999999
9666 70.313999999999993 27.995999999999999
9667 64.954999999999998 66.272000000000006
9668 24.696999999999999 52.723999999999997
9669 26.984999999999999 26.337
9670 23.059000000000001 61.954999999999998
9671 73.823999999999998 79.873000000000005
9672 33.579000000000001 19.457000000000001
9673 20.899999999999999 57.119
9674 31.344000000000001 28.048999999999999
9675 70.072999999999993 67.331000000000003
9676 76.899000000000001 32.182000000000002
9677 74.706000000000003 27.873000000000001
9678 66.346000000000004 94.534000000000006
9679 24.798999999999999 53.503999999999998
9680 66.905000000000001 82.513999999999996
9681 18.492999999999999 26.276
9682 65.147000000000006 83.921999999999997
9683 86.060000000000002 79.138000000000005
9684 36.789000000000001 34.142000000000003
9685 18.498000000000001 59.536999999999999
9686 15.743 69.370999999999995
9687 29.068000000000001 25.638000000000002
9688 27.559000000000001 53.534999999999997
9689 61.762 82.451999999999998
9690 71.332999999999998 71.599000000000004
9691 52.972000000000001 74
9692 40.369999999999997 23.094999999999999
9693 19.151 70.552000000000007
9694 61.289999999999999 73.858000000000004
9695 42.167999999999999 15.021000000000001
9696 28.706 60.706000000000003
9697 64.748000000000005 92.322999999999993
9698 30.408000000000001 35.594999999999999
9699 53.180999999999997 22.689
9700 36.106000000000002 25.187000000000001
9701 68.247 27.693999999999999
9702 66.168999999999997 33.555
9703 24.376000000000001 65.188999999999993
9704 26.398 65.656000000000006
9705 63.133000000000003 12.976000000000001
9706 26.199000000000002 26.896000000000001
9707 64.838999999999999 19.111999999999998
9708 70.908000000000001 83.024000000000001
9709 7.944 40.484000000000002
9710 30.594000000000001 69.055000000000007
9711 70.384 23.329999999999998
9712 56.149999999999999 19.478999999999999
9713 67.144000000000005 30.238
9714 16.690000000000001 55.689999999999998
9715 28.677 23.690999999999999
9716 65.507999999999996 28.931000000000001
9717 56.142000000000003 89.570999999999998
9718 13.162000000000001 63.877000000000002
9719 44.770000000000003 18.056000000000001
9720 59.271000000000001 81.222999999999999
9721 62.857999999999997 88.135999999999996
9722 63.298000000000002 89.108000000000004
9723 64.174999999999997 71.040000000000006
9724 30.169 25.385999999999999
9725 69.659000000000006 25.137
9726 10.718999999999999 57.548000000000002
9727 28.023 53.866
9728 70.840000000000003 83.572000000000003
9729 27.655000000000001 23.350999999999999
9730 17.585999999999999 63.484999999999999
9731 29.853999999999999 57.868000000000002
9732 64.879000000000005 29.175999999999998
9733 76.078999999999994 35.746000000000002
9734 13.058999999999999 63.017000000000003
9735 41.588000000000001 28.468
9736 14.246 79.763000000000005
9737 66.281999999999996 81.257000000000005
9738 31.585999999999999 23.236999999999998
9739 71.572000000000003 77.563999999999993
9740 31.192 33.5
9741 60.762 77.442999999999998
9742 18.504999999999999 60.587000000000003
9743 73.915000000000006 95.194000000000003
9744 25.181000000000001 35.561
9745 72.513999999999996 69.706000000000003
9746 46.354999999999997 72.572999999999993
9747 15.042999999999999 27.754999999999999
9748 66.152000000000001 95.091999999999999
9749 66.703000000000003 76.844999999999999
9750 21.172000000000001 85.537000000000006
9751 18.571999999999999 61.274999999999999
9752 55.412999999999997 81.605999999999995
9753 44.939 68.147000000000006
9754 22.815000000000001 65.683000000000007
9755 29.635000000000002 59.241999999999997
9756 66.427000000000007 28.309000000000001
9757 57.731000000000002 91.947999999999993
9758 70.373000000000005 29.966999999999999
9759 71.292000000000002 43.171999999999997
9760 36.840000000000003 34.451999999999998
9761 25.797000000000001 25.925000000000001
9762 33.020000000000003 70.433999999999997
9763 20.972999999999999 72.629999999999995
9764 70.415999999999997 22.704000000000001
9765 34.573999999999998 29.57
9766 24.181999999999999 15.154
9767 12.172000000000001 67.165000000000006
9768 27.216999999999999 25.521000000000001
9769 31.710000000000001 56.311999999999998
9770 65.658000000000001 74.608000000000004
9771 44.476999999999997 58.756999999999998
9772 65.869 37.142000000000003
9773 82.373000000000005 18.917999999999999
9774 25.056999999999999 18.440000000000001
9775 63.991999999999997 84.939999999999998
9776 61.607999999999997 73.180000000000007
9777 61.143999999999998 14.502000000000001
9778 63.094999999999999 41.799999999999997
9779 60.341000000000001 20.434000000000001
9780 48.262 15.814
9781 43.399000000000001 15.776999999999999
9782 78.960999999999999 26.765000000000001
9783 31.895 23.843
9784 32.695999999999998 61.002000000000002
9785 33.134 72.656999999999996
9786 53.220999999999997 83.438999999999993
9787 66.992999999999995 80.135999999999996
9788 23.175000000000001 68.507999999999996
9789 82.018000000000001 73.734999999999999
9790 19.094999999999999 65.054000000000002
9791 67.606999999999999 13.651
9792 60.369 32.284999999999997
9793 20.959 25.942
9794 56.927999999999997 78.921000000000006
9795 35.234000000000002 22.43
9796 62.896999999999998 72.477999999999994
9797 61.448 18.951000000000001
9798 22.902999999999999 21.221
9799 88.554000000000002 72.093999999999994
9800 20.908999999999999 35.771999999999998
9801 79.260999999999996 88.055999999999997
9802 62.740000000000002 19.268000000000001
9803 31.443000000000001 68.358000000000004
9804 23.114000000000001 68.469999999999999
9805 16.666 67.418000000000006
9806 28.305 19.149999999999999
9807 65.170000000000002 11.776999999999999
9808 64.081000000000003 25.798999999999999
9809 65.814999999999998 28.693000000000001
9810 12.698 59.177999999999997
9811 65.608999999999995 38.466000000000001
9812 22.765999999999998 29.791
9813 69.683000000000007 82.870999999999995
9814 30.937000000000001 54.725999999999999
9815 37.118000000000002 40.487000000000002
9816 73.5 29.183
9817 29.491 61.103999999999999
9818 18.675999999999998 22.422999999999998
9819 77.094999999999999 66.844999999999999
9820 34.933 61.356999999999999
9821 30.914000000000001 22.945
9822 62.015999999999998 18.524000000000001
9823 18.695 69.622
9824 73.861000000000004 79.614000000000004
9825 27.189 60.145000000000003
9826 27.991 67.674000000000007
9827 33.847000000000001 13.226000000000001
9828 67.218000000000004 83.975999999999999
9829 28.568000000000001 17.957000000000001
9830 61.192 20.071000000000002
9831 57.023000000000003 33.197000000000003
9832 45.651000000000003 34.923999999999999
9833 74.599999999999994 75.382999999999996
9834 19.841000000000001 54.323
9835 78.641000000000005 32.918999999999997
9836 75.180999999999997 16.050999999999998
9837 14.724 23.579000000000001
9838 66.887 39.761000000000003
9839 61.430999999999997 31.594999999999999
9840 3.1259999999999999 68.653999999999996
9841 14.702999999999999 64.451999999999998
9842 24.286999999999999 58.469999999999999
9843 59.539999999999999 14.776
9844 21.036999999999999 25.206
9845 51.917000000000002 27.460000000000001
9846 46.606999999999999 76.969999999999999
9847 57.552 37.93
9848 54.423999999999999 19.713000000000001
9849 58.25 21.956
9850 29.715 28.359000000000002
9851 14.429 58.655999999999999
9852 61.121000000000002 24.120000000000001
9853 63.240000000000002 9.4879999999999995
9854 66.153999999999996 31.131
9855 9.7249999999999996 52.978000000000002
9856 23.324000000000002 69.724999999999994
9857 29.068000000000001 24.466999999999999
9858 72.230999999999995 37.460999999999999
9859 12.497 61.591999999999999
9860 52.109999999999999 15.680999999999999
9861 26.227 19.538
9862 21.891999999999999 42.121000000000002
9863 21.469000000000001 28.675000000000001
9864 67.811000000000007 76.668999999999997
9865 39.235999999999997 65.328999999999994
9866 55.866 21.335999999999999
9867 54.640999999999998 30.931000000000001
9868 18.404 65.346000000000004
9869 71.459000000000003 88.528000000000006
9870 32.951000000000001 33.436999999999998
9871 68.224000000000004 81.668000000000006
9872 76.013000000000005 73.144999999999996
9873 63.837000000000003 30.039999999999999
9874 42.292000000000002 36.887999999999998
9875 63.354999999999997 18.931000000000001
9876 32.229999999999997 69.290999999999997
9877 19.224 68.475999999999999
9878 48.457000000000001 35.459000000000003
9879 61.761000000000003 69.067999999999998
9880 28.716000000000001 70.840999999999994
9881 35.427 35.134999999999998
9882 73.299999999999997 38.409999999999997
9883 66.019000000000005 22.908000000000001
9884 25.242000000000001 13.984
9885 60.240000000000002 79.697999999999993
9886 28.309999999999999 71.897000000000006
9887 43.728000000000002 31.016999999999999
9888 51.375999999999998 26.751000000000001
9889 81.156000000000006 32.712000000000003
9890 29.984999999999999 41.122
9891 26.149000000000001 36.030000000000001
9892 19.876000000000001 27.079999999999998
9893 71.694999999999993 71.424000000000007
9894 32.395000000000003 23.073
9895 23.425000000000001 25.925999999999998
9896 73.102000000000004 77.867999999999995
9897 68.787000000000006 21.167000000000002
9898 35.456000000000003 62.405000000000001
9899 55.643999999999998 28.948
9900 63.360999999999997 84.064999999999998
9901 68.457999999999998 94.144999999999996
9902 15.257999999999999 64.733999999999995
9903 78.963999999999999 29.832999999999998
9904 14.706 59.286999999999999
9905 65.539000000000001 71.730000000000004
9906 77.215000000000003 63.968000000000004
9907 29.084 22.646000000000001
9908 68.126000000000005 83.888000000000005
9909 63.829999999999998 32.494
9910 59.621000000000002 29.442
9911 18.050999999999998 69.266000000000005
9912 77.893000000000001 14.874000000000001
9913 38.345999999999997 30.942
9914 31.097999999999999 21.550999999999998
9915 67.480000000000004 25.800000000000001
9916 22.832999999999998 78.978999999999999
9917 30.277999999999999 30.853999999999999
9918 19.988 66.805000000000007
9919 54.533000000000001 27.899999999999999
9920 23.835999999999999 28.891999999999999
9921 17.863 31.510000000000002
9922 32.049999999999997 33.909999999999997
9923 24.762 68.894999999999996
9924 58.040999999999997 14.435
9925 71.653999999999996 35.960000000000001
9926 73.462999999999994 17.617000000000001
9927 32.079999999999998 33.941000000000003
9928 81.584999999999994 75.415999999999997
9929 76.253 83.179000000000002
9930 17.079999999999998 65.359999999999999
9931 59.590000000000003 81.873000000000005
9932 34.805 24.959
9933 59.854999999999997 71.891000000000005
9934 24.68 62.578000000000003
9935 16.654 23.039999999999999
9936 62.344000000000001 19.152000000000001
9937 59.802999999999997 33.436
9938 67.998000000000005 32.801000000000002
9939 31.91 29.367000000000001
9940 65.575000000000003 39.594999999999999
9941 49.255000000000003 12.836
9942 63.944000000000003 24.959
9943 23.870000000000001 13.699999999999999
9944 55.250999999999998 19.859999999999999
9945 77.064999999999998 21.727
9946 79.117999999999995 81.587999999999994
9947 21.619 53.314999999999998
9948 13.731 15.760999999999999
9949 22.445 61.389000000000003
9950 19.372 63.957000000000001
9951 58.337000000000003 72.331999999999994
9952 19.803999999999998 65.280000000000001
9953 14.154999999999999 82.519000000000005
9954 15.337999999999999 66.838999999999999
9955 28.760999999999999 70.611000000000004
9956 32.725000000000001 29.66
9957 46.918999999999997 31.541
9958 74.834000000000003 74.369
9959 70.599000000000004 79.697999999999993
9960 27.800000000000001 62.475999999999999
9961 71.153999999999996 65.373999999999995
9962 21.978999999999999 33.433999999999997
9963 25.898 54.948999999999998
9964 28.021999999999998 69.522000000000006
9965 29.231000000000002 37.058999999999997
9966 58.881999999999998 28.379999999999999
9967 68.632000000000005 14.316000000000001
9968 54.597999999999999 30.390000000000001
9969 22.625 69.658000000000001
9970 28.460999999999999 33.832000000000001
9971 28.247 27.66
9972 65.265000000000001 38.203000000000003
9973 13.871 75.040000000000006
9974 20.791 71.686000000000007
9975 17.369 66.676000000000002
9976 79.140000000000001 77.966999999999999
9977 43.503999999999998 56.079999999999998
9978 63.088999999999999 79.510000000000005
9979 31.151 25.515999999999998
9980 21.972000000000001 64.647000000000006
9981 65.992000000000004 69.105999999999995
9982 12.438000000000001 27.378
9983 73.132999999999996 82.090999999999994
9984 50.212000000000003 84.694000000000003
9985 35.295999999999999 29.506
9986 33.548000000000002 20.879999999999999
9987 20.963000000000001 73.433999999999997
9988 73.332999999999998 83.596999999999994
9989 61.652000000000001 61.061999999999998
9990 48.701000000000001 56.027000000000001
9991 24.516999999999999 19.321000000000002
9992 26.645 21.279
9993 29.488 68.640000000000001
9994 25.690000000000001 78.078999999999994
9995 68.745999999999995 19.638999999999999
9996 66.811999999999998 87.057000000000002
9997 22.059999999999999 65.712000000000003
9998 38.192 32.222999999999999
9999 40.164999999999999 61.857999999999997
10000 75.320999999999998 76.715000000000003
DEPOT_SECTION
1
-1
EOF
